KPOINTS created by Atomic Simulation Environment
0
Monkhorst-Pack
7 7 4 
0 0 0
