Na Cl 
 1.0000000000000000
     5.6916940000000000    0.0000000000000000    0.0000000000000000
     0.0000000000000000    5.6916940000000000    0.0000000000000000
     0.0000000000000000    0.0000000000000000   11.3833880000000001
 Na  Cl 
   8   8
Cartesian
  0.0000000000000000  0.0000000000000000  0.0000000000000000
  0.0000000000000000  0.0000000000000000  5.6916940000000000
  0.0000000000000000  2.8458470000000000  2.8458470000000000
  0.0000000000000000  2.8458470000000000  8.5375410000000009
  2.8458470000000000  0.0000000000000000  2.8458470000000000
  2.8458470000000000  0.0000000000000000  8.5375410000000009
  2.8458470000000000  2.8458470000000000  0.0000000000000000
  2.8458470000000000  2.8458470000000000  5.6916940000000000
  2.8458470000000000  0.0000000000000000  0.0000000000000000
  2.8458470000000000  0.0000000000000000  5.6916940000000000
  2.8458470000000000  2.8458470000000000  2.8458470000000000
  2.8458470000000000  2.8458470000000000  8.5375410000000009
  0.0000000000000000  0.0000000000000000  2.8458470000000000
  0.0000000000000000  0.0000000000000000  8.5375410000000009
  0.0000000000000000  2.8458470000000000  0.0000000000000000
  0.0000000000000000  2.8458470000000000  5.6916940000000000
