KPOINTS created by Atomic Simulation Environment
0
Gamma
7 7 1 
0 0 0
