Li 
 1.0000000000000000
     3.0637660000000002    0.0000000000000000    0.0000000000000000
    -1.5318830000000001    2.6532990000000001    0.0000000000000000
     0.0000000000000000    0.0000000000000000   22.2661739999999995
 Li 
   9
Cartesian
  1.5318845318829999  0.8844321155670000  2.4777575765459998
  0.0000000000000000  0.0000000000000000  4.9442930013959998
  0.0000000000000000  0.0000000000000000  0.0000000000000000
 -0.0000015318830001  1.7688668844330000  9.8998304206619991
  1.5318845318829999  0.8844321155670000 12.3663435793379985
  1.5318845318829999  0.8844321155670000  7.4220505779419996
  0.0000000000000000  0.0000000000000000 17.3218809986040014
 -0.0000015318830001  1.7688668844330000 19.7884164234539988
 -0.0000015318830001  1.7688668844330000 14.8441234220580007
