INCAR created by Atomic Simulation Environment
 ENCUT = 520.000000
 SIGMA = 0.050000
 EDIFF = 2.00e-04
 ALGO = Fast
 PREC = Accurate
 IBRION = 2
 ISIF = 3
 ISMEAR = -5
 ISPIN = 2
 LORBIT = 11
 NELM = 100
 NSW = 99
 MAGMOM = 4*0.6000
 LASPH = .TRUE.
 LWAVE = .FALSE.
 LREAL = Auto
