KPOINTS created by Atomic Simulation Environment
0
Gamma
6 6 2 
0 0 0
