 C 
 1.0000000000000000
     2.4677240000000000    0.0000000000000000    0.0000000000000000
    -1.2338620000000000    2.1371120000000001    0.0000000000000000
     0.0000000000000000    0.0000000000000000    8.6850380000000005
 C  
   4
Cartesian
  0.0000000000000000  0.0000000000000000  2.1712595000000001
  0.0000000000000000  0.0000000000000000  6.5137785000000008
  1.2338632338619999  0.7123699542960000  2.1712595000000001
 -0.0000012338620001  1.4247420457040001  6.5137785000000008
