<UPF version="2.0.1">
<PP_INFO>
Generated using FHI98PP, converted with fhi2upf.x v.5.0.1
Author: Abinit web site
Generation date: 10-Jul-2012, PG
Pseudopotential type: SL
Element: Zn
Functional: SLA-PW

Suggested minimum cutoff for wavefunctions:   0. Ry
Suggested minimum cutoff for charge density:   0. Ry
The Pseudo was generated with a Non-Relativistic Calculation
L component and cutoff radius for Local Potential:  0   0.0000

Valence configuration:
nl pn  l   occ       Rcut    Rcut US       E pseu
4s  4  0  2.00      0.000      0.000     0.000000
4p  4  1  0.00      0.000      0.000     0.000000
3d  3  2 10.00      0.000      0.000     0.000000
4f  4  3  0.00      0.000      0.000     0.000000

Generation configuration: not available.
Comment:
zinc, fhi98PP : Trouiller-Martins-type, LDA Ceperley/Alder Perdew/Wang (1992), l
</PP_INFO>
<!--                               -->
<!-- END OF HUMAN READABLE SECTION -->
<!--                               -->
<PP_HEADER generated="Generated using FHI98PP, converted with fhi2upf.x v.5.0.1"
author="Abinit web site"
date="10-Jul-2012, PG"
comment="zinc, fhi98PP : Trouiller-Martins-type, LDA Ceperley/Alder Perdew/Wang (1992), l"
element="Zn"
pseudo_type="SL"
relativistic="no"
is_ultrasoft="F"
is_paw="F"
is_coulomb="F"
has_so="F"
has_wfc="F"
has_gipaw="F"
paw_as_gipaw="F"
core_correction="F"
functional="SLA-PW"
z_valence="1.200000000000000E+001"
total_psenergy="0.000000000000000E+000"
wfc_cutoff="0.000000000000000E+000"
rho_cutoff="0.000000000000000E+000"
l_max="3"
l_max_rho="0"
l_local="0"
mesh_size="527"
number_of_wfc="4"
number_of_proj="3"/>
<PP_MESH dx="2.439988682353512E-002" mesh="527" xmin="-5.075173815233843E+000" rmax="7.809837674256600E+001"
zmesh="3.000000000000000E+001">
<PP_R type="real" size="527" columns="4">
2.083333333333300E-004  2.134791666666700E-004  2.187521020833300E-004  2.241552790047900E-004
2.296919143962100E-004  2.353653046818000E-004  2.411788277074400E-004  2.471359447518100E-004
2.532402025871800E-004  2.594952355910800E-004  2.659047679101800E-004  2.724726156775600E-004
2.792026892848000E-004  2.860989957101400E-004  2.931656409041800E-004  3.004068322345100E-004
3.078268809907000E-004  3.154302049511700E-004  3.232213310134600E-004  3.312048978895000E-004
3.393856588673700E-004  3.477684846413900E-004  3.563583662120300E-004  3.651604178574700E-004
3.741798801785500E-004  3.834221232189600E-004  3.928926496624700E-004  4.025970981091300E-004
4.125412464324300E-004  4.227310152193100E-004  4.331724712952300E-004  4.438718313362200E-004
4.548354655702200E-004  4.660699015698100E-004  4.775818281385800E-004  4.893780992936000E-004
5.014657383461600E-004  5.138519420833100E-004  5.265440850527600E-004  5.395497239535700E-004
5.528766021352200E-004  5.665326542079600E-004  5.805260107669000E-004  5.948650032328400E-004
6.095581688126900E-004  6.246142555823600E-004  6.400422276952500E-004  6.558512707193199E-004
6.720507971060900E-004  6.886504517946100E-004  7.056601179539400E-004  7.230899228674000E-004
7.409502439622200E-004  7.592517149880900E-004  7.780052323482900E-004  7.972219615873000E-004
8.169133440385000E-004  8.370911036362500E-004  8.577672538960700E-004  8.789541050673000E-004
9.006642714624700E-004  9.229106789675900E-004  9.457065727380900E-004  9.690655250847200E-004
9.930014435543099E-004  1.017528579210100E-003  1.042661535116600E-003  1.068415275034000E-003
1.094805132327300E-003  1.121846819095800E-003  1.149556435527500E-003  1.177950479485000E-003
1.207045856328300E-003  1.236859888979600E-003  1.267410328237400E-003  1.298715363344800E-003
1.330793632819500E-003  1.363664235550100E-003  1.397346742168200E-003  1.431861206699700E-003
1.467228178505200E-003  1.503468714514300E-003  1.540604391762800E-003  1.578657320239300E-003
1.617650156049300E-003  1.657606114903700E-003  1.698548985941800E-003  1.740503145894600E-003
1.783493573598100E-003  1.827545864866000E-003  1.872686247728200E-003  1.918941598047100E-003
1.966339455518900E-003  2.014908040070200E-003  2.064676268659900E-003  2.115673772495800E-003
2.167930914676500E-003  2.221478808269000E-003  2.276349334833200E-003  2.332575163403600E-003
2.390189769939700E-003  2.449227457257200E-003  2.509723375451400E-003  2.571713542825100E-003
2.635234867332800E-003  2.700325168556000E-003  2.767023200219300E-003  2.835368673264700E-003
2.905402279494400E-003  2.977165715797900E-003  3.050701708978100E-003  3.126054041189800E-003
3.203267576007200E-003  3.282388285134600E-003  3.363463275777400E-003  3.446540818689100E-003
3.531670376910700E-003  3.618902635220400E-003  3.708289530310400E-003  3.799884281709000E-003
3.893741423467300E-003  3.989916836626900E-003  4.088467782491600E-003  4.189452936719100E-003
4.292932424256100E-003  4.398967855135200E-003  4.507622361157100E-003  4.618960633477600E-003
4.733048961124500E-003  4.849955270464300E-003  4.969749165644800E-003  5.092501970036200E-003
5.218286768696100E-003  5.347178451882900E-003  5.479253759644400E-003  5.614591327507600E-003
5.753271733297100E-003  5.895377545109500E-003  6.040993370473700E-003  6.190205906724400E-003
6.343103992620500E-003  6.499778661238200E-003  6.660323194170800E-003  6.824833177066800E-003
6.993406556540400E-003  7.166143698486900E-003  7.343147447839500E-003  7.524523189801200E-003
7.710378912589300E-003  7.900825271730199E-003  8.095975655942000E-003  8.295946254643700E-003
8.500856127133400E-003  8.710827273473601E-003  8.925984707128401E-003  9.146456529394499E-003
9.372374005670500E-003  9.603871643610601E-003  9.841087273207800E-003  1.008416212885600E-002
1.033324093343900E-002  1.058847198449500E-002  1.085000724251200E-002  1.111800242140200E-002
1.139261708121000E-002  1.167401472311600E-002  1.196236288677700E-002  1.225783325008100E-002
1.256060173135800E-002  1.287084859412200E-002  1.318875855439700E-002  1.351452089069100E-002
1.384832955669100E-002  1.419038329674100E-002  1.454088576417000E-002  1.490004564254500E-002
1.526807676991600E-002  1.564519826613300E-002  1.603163466330700E-002  1.642761603949000E-002
1.683337815566600E-002  1.724916259611100E-002  1.767521691223500E-002  1.811179476996700E-002
1.855915610078500E-002  1.901756725647400E-002  1.948730116770900E-002  1.996863750655200E-002
2.046186285296400E-002  2.096727086543200E-002  2.148516245580800E-002  2.201584596846600E-002
2.255963736388700E-002  2.311686040677600E-002  2.368784685882300E-002  2.427293667623600E-002
2.487247821213900E-002  2.548682842397900E-002  2.611635308605100E-002  2.676142700727600E-002
2.742243425435600E-002  2.809976838043900E-002  2.879383265943600E-002  2.950504032612400E-002
3.023381482217900E-002  3.098059004828700E-002  3.174581062247900E-002  3.252993214485500E-002
3.333342146883200E-002  3.415675697911300E-002  3.500042887649700E-002  3.586493946974600E-002
3.675080347464900E-002  3.765854832047300E-002  3.858871446398800E-002  3.954185571124900E-002
4.051853954731700E-002  4.151934747413500E-002  4.254487535674700E-002  4.359573377805800E-002
4.467254840237600E-002  4.577596034791500E-002  4.690662656850800E-002  4.806522024475100E-002
4.925243118479600E-002  5.046896623506000E-002  5.171554970106600E-002  5.299292377868300E-002
5.430184899601600E-002  5.564310466621800E-002  5.701748935147300E-002  5.842582133845500E-002
5.986893912551500E-002  6.134770192191500E-002  6.286299015938600E-002  6.441570601632300E-002
6.600677395492600E-002  6.763714127161299E-002  6.930777866102200E-002  7.101968079394901E-002
7.277386690955900E-002  7.457138142222500E-002  7.641329454335399E-002  7.830070291857499E-002
8.023473028066400E-002  8.221652811859700E-002  8.424727636312600E-002  8.632818408929500E-002
8.846049023630100E-002  9.064546434513700E-002  9.288440731446200E-002  9.517865217512900E-002
9.752956488385500E-002  9.993854513648601E-002  1.024070272013600E-001  1.049364807732300E-001
1.075284118483300E-001  1.101843636209800E-001  1.129059174024200E-001  1.156946935622600E-001
1.185523524932500E-001  1.214805955998300E-001  1.244811663111500E-001  1.275558511190300E-001
1.307064806416700E-001  1.339349307135200E-001  1.372431235021500E-001  1.406330286526500E-001
1.441066644603700E-001  1.476660990725400E-001  1.513134517196300E-001  1.550508939771100E-001
1.588806510583400E-001  1.628050031394800E-001  1.668262867170300E-001  1.709468959989400E-001
1.751692843301100E-001  1.794959656530700E-001  1.839295160047000E-001  1.884725750500100E-001
1.931278476537500E-001  1.978981054908000E-001  2.027861886964200E-001  2.077950075572200E-001
2.129275442438900E-001  2.181868545867100E-001  2.235760698950000E-001  2.290983988214100E-001
2.347571292723000E-001  2.405556303653200E-001  2.464973544353500E-001  2.525858390899000E-001
2.588247093154200E-001  2.652176796355100E-001  2.717685563225100E-001  2.784812396636700E-001
2.853597262833700E-001  2.924081115225600E-001  2.996305918771700E-001  3.070314674965400E-001
3.146151447437000E-001  3.223861388188700E-001  3.303490764477000E-001  3.385086986359600E-001
3.468698634922600E-001  3.554375491205200E-001  3.642168565838000E-001  3.732130129414200E-001
3.824313743610700E-001  3.918774293077900E-001  4.015568018116900E-001  4.114752548164400E-001
4.216386936104100E-001  4.320531693425900E-001  4.427248826253500E-001  4.536601872261900E-001
4.648655938506800E-001  4.763477740187900E-001  4.881135640370600E-001  5.001699690687700E-001
5.125241673047700E-001  5.251835142372000E-001  5.381555470388600E-001  5.514479890507200E-001
5.650687543802700E-001  5.790259526134600E-001  5.933278936430100E-001  6.079830926160000E-001
6.230002750036100E-001  6.383883817962001E-001  6.541565748265700E-001  6.703142422247800E-001
6.868710040077400E-001  7.038367178067300E-001  7.212214847365500E-001  7.390356554095500E-001
7.572898360981600E-001  7.759948950497900E-001  7.951619689575200E-001  8.148024695907700E-001
8.349280905896600E-001  8.555508144272200E-001  8.766829195435800E-001  8.983369876563000E-001
9.205259112514100E-001  9.432629012593200E-001  9.665614949204300E-001  9.904355638449600E-001
1.014899322271900E+000  1.039967335532000E+000  1.065654528719700E+000  1.091976195579100E+000
1.118948007609900E+000  1.146586023397800E+000  1.174906698175800E+000  1.203926893620700E+000
1.233663887893100E+000  1.264135385924100E+000  1.295359529956400E+000  1.327354910346300E+000
1.360140576631900E+000  1.393736048874700E+000  1.428161329281900E+000  1.463436914115200E+000
1.499583805893800E+000  1.536623525899400E+000  1.574578126989100E+000  1.613470206725700E+000
1.653322920831900E+000  1.694159996976400E+000  1.736005748901700E+000  1.778885090899600E+000
1.822823552644800E+000  1.867847294395100E+000  1.913983122566700E+000  1.961258505694100E+000
2.009701590784700E+000  2.059341220077100E+000  2.110206948213000E+000  2.162329059833900E+000
2.215738587611800E+000  2.270467330725800E+000  2.326547873794700E+000  2.384013606277500E+000
2.442898742352500E+000  2.503238341288600E+000  2.565068328318500E+000  2.628425516027900E+000
2.693347626273800E+000  2.759873312642800E+000  2.828042183465000E+000  2.897894825396600E+000
2.969472827583900E+000  3.042818806425300E+000  3.117976430944000E+000  3.194990448788300E+000
3.273906712873300E+000  3.354772208681300E+000  3.437635082235700E+000  3.522544668767000E+000
3.609551522085500E+000  3.698707444681000E+000  3.790065518564600E+000  3.883680136873200E+000
3.979607036254000E+000  4.077903330049400E+000  4.178627542301700E+000  4.281839642596500E+000
4.387601081768600E+000  4.495974828488300E+000  4.607025406752000E+000  4.720818934298800E+000
4.837423161975900E+000  4.956907514076700E+000  5.079343129674400E+000  5.204802904977400E+000
5.333361536730300E+000  5.465095566687600E+000  5.600083427184800E+000  5.738405487836200E+000
5.880144103385800E+000  6.025383662739400E+000  6.174210639209100E+000  6.326713641997500E+000
6.482983468954900E+000  6.643113160638100E+000  6.807198055705800E+000  6.975335847681700E+000
7.147626643119500E+000  7.324173021204500E+000  7.505080094828300E+000  7.690455573170500E+000
7.880409825827900E+000  8.075055948525801E+000  8.274509830454400E+000  8.478890223266600E+000
8.688318811781301E+000  8.902920286432300E+000  9.122822417507200E+000  9.348156131219600E+000
9.579055587660701E+000  9.815658260675900E+000  1.005810501971500E+001  1.030654021370200E+001
1.056111175698000E+001  1.082197121737700E+001  1.108927390644700E+001  1.136317897193600E+001
1.164384949254300E+001  1.193145257500900E+001  1.222615945361100E+001  1.252814559211500E+001
1.283759078824100E+001  1.315467928071000E+001  1.347959985894400E+001  1.381254597546000E+001
1.415371586105400E+001  1.450331264282200E+001  1.486154446509900E+001  1.522862461338700E+001
1.560477164133800E+001  1.599020950087900E+001  1.638516767555100E+001  1.678988131713700E+001
1.720459138567000E+001  1.762954479289600E+001  1.806499454928100E+001  1.851119991464800E+001
1.896842655254000E+001  1.943694668838700E+001  1.991703927159000E+001  2.040899014159900E+001
2.091309219809600E+001  2.142964557538900E+001  2.195895782110100E+001  2.250134407928200E+001
2.305712727804100E+001  2.362663832180800E+001  2.421021628835700E+001  2.480820863067900E+001
2.542097138385700E+001  2.604886937703900E+001  2.669227645065100E+001  2.735157567898200E+001
2.802715959825300E+001  2.871943044033000E+001  2.942880037220600E+001  3.015569174140000E+001
3.090053732741200E+001  3.166378059939900E+001  3.244587598020500E+001  3.324728911691600E+001
3.406849715810400E+001  3.490998903790900E+001  3.577226576714500E+001  3.665584073159300E+001
3.756123999766400E+001  3.848900262560600E+001  3.943968099045900E+001  4.041384111092300E+001
4.141206298636300E+001  4.243494094212600E+001  4.348308398339600E+001  4.455711615778600E+001
4.565767692688400E+001  4.678542154697800E+001  4.794102145918800E+001  4.912516468923000E+001
5.033855625705400E+001  5.158191859660300E+001  5.285599198593900E+001  5.416153498799200E+001
5.549932490219500E+001  5.687015822728000E+001  5.827485113549300E+001  5.971423995854000E+001
6.118918168551600E+001  6.270055447314800E+001  6.424925816863500E+001  6.583621484539999E+001
6.746236935208201E+001  6.912868987507800E+001  7.083616851499200E+001  7.258582187731299E+001
7.437869167768200E+001  7.621584536212100E+001  7.809837674256600E+001
</PP_R>
<PP_RAB type="real" size="527" columns="4">
5.083309754903069E-006  5.208867505849340E-006  5.337526533243653E-006  5.469363438614814E-006
5.604456715548641E-006  5.742886796422781E-006  5.884736100294412E-006  6.030089081971592E-006
6.179032282296298E-006  6.331654379668935E-006  6.488046242846766E-006  6.648300985045045E-006
6.812514019375762E-006  6.980783115654475E-006  7.153208458611130E-006  7.329892707538747E-006
7.510941057414895E-006  7.696461301533034E-006  7.886563895680808E-006  8.081362023904306E-006
8.280971665894726E-006  8.485511666042227E-006  8.695103804193415E-006  8.909872868157061E-006
9.129946728000552E-006  9.355456412182162E-006  9.586536185563103E-006  9.823323629346438E-006
1.006595972299140E-005  1.031458892814927E-005  1.056935927467463E-005  1.083042244875904E-005
1.109793388324327E-005  1.137205285015952E-005  1.165294255555835E-005  1.194077023668057E-005
1.223570726152678E-005  1.253792923088649E-005  1.284761608288919E-005  1.316495220013673E-005
1.349012651948003E-005  1.382333264451118E-005  1.416476896083069E-005  1.451463875416315E-005
1.487315033139095E-005  1.524051714457622E-005  1.561695791804740E-005  1.600269677862310E-005
1.639796338905516E-005  1.680299308476481E-005  1.721802701395858E-005  1.764331228120330E-005
1.807910209454890E-005  1.852565591628434E-005  1.898323961741642E-005  1.945212563596679E-005
1.993259313917501E-005  2.042492818971261E-005  2.092942391599862E-005  2.144638068672372E-005
2.197610628968598E-005  2.251891611504115E-005  2.307513334308268E-005  2.364508913665680E-005
2.422912283833216E-005  2.482758217243893E-005  2.544082345209843E-005  2.606921179136575E-005
2.671312132261151E-005  2.737293541928040E-005  2.804904692413745E-005  2.874185838316293E-005
2.945178228522756E-005  3.017924130767246E-005  3.092466856797206E-005  3.168850788159941E-005
3.247121402627695E-005  3.327325301272498E-005  3.409510236213959E-005  3.493725139048311E-005
3.580020149982847E-005  3.668446647687476E-005  3.759057279885349E-005  3.851905994698416E-005
3.947048072767685E-005  4.044540160165004E-005  4.144440302121027E-005  4.246807977583507E-005
4.351704134629584E-005  4.459191226755002E-005  4.569333250055873E-005  4.682195781332287E-005
4.797846017131283E-005  4.916352813754385E-005  5.037786728254036E-005  5.162220060441912E-005
5.289726895934958E-005  5.420383150264528E-005  5.554266614075953E-005  5.691456999443679E-005
5.832035987330013E-005  5.976087276217039E-005  6.123696631939471E-005  6.274951938748498E-005
6.429943251635391E-005  6.588762849950979E-005  6.751505292344688E-005  6.918267473065561E-005
7.089148679650432E-005  7.264250652037768E-005  7.443677643143082E-005  7.627536480928571E-005
7.815936632007537E-005  8.008990266818178E-005  8.206812326408526E-005  8.409520590870812E-005
8.617235749465270E-005  8.830081472477077E-005  9.048184484847397E-005  9.271674641622966E-005
9.500685005271266E-005  9.735351924901363E-005  9.975815117446466E-005  1.022221775084729E-004
1.047470652929331E-004  1.073343178056679E-004  1.099854754554694E-004  1.127021166992175E-004
1.154858589816883E-004  1.183383596985366E-004  1.212613171830912E-004  1.242564717175129E-004
1.273256065689356E-004  1.304705490511885E-004  1.336931716127527E-004  1.369953929515873E-004
1.403791791574930E-004  1.438465448826821E-004  1.473995545412842E-004  1.510403235384540E-004
1.547710195298539E-004  1.585938637122407E-004  1.625111321459335E-004  1.665251571099375E-004
1.706383284905542E-004  1.748530952042697E-004  1.791719666558146E-004  1.835975142322148E-004
1.881323728337507E-004  1.927792424427430E-004  1.975408897310803E-004  2.024201497074364E-004
2.074199274052101E-004  2.125431996121189E-004  2.177930166425383E-004  2.231725041536096E-004
2.286848650062027E-004  2.343333811718569E-004  2.401214156868022E-004  2.460524146542654E-004
2.521299092962320E-004  2.583575180558503E-004  2.647389487518292E-004  2.712780007859982E-004
2.779785674053970E-004  2.848446380203131E-004  2.918803005794157E-004  2.990897440037421E-004
3.064772606806345E-004  3.140472490194329E-004  3.218042160702175E-004  3.297527802071615E-004
3.378976738782767E-004  3.462437464230636E-004  3.547959669597010E-004  3.635594273436057E-004
3.725393451989961E-004  3.817410670254131E-004  3.911700713809534E-004  4.008319721440463E-004
4.107325218560188E-004  4.208776151458636E-004  4.312732922399679E-004  4.419257425582901E-004
4.528413083994753E-004  4.640264887169329E-004  4.754879429882434E-004  4.872324951800673E-004
4.992671378110191E-004  5.115990361149461E-004  5.242355323069811E-004  5.371841499549524E-004
5.504525984588371E-004  5.640487776407945E-004  5.779807824485132E-004  5.922569077749932E-004
6.068856533970348E-004  6.218757290359456E-004  6.372360595431266E-004  6.529757902138307E-004
6.691042922321192E-004  6.856311682502624E-004  7.025662581060477E-004  7.199196446812654E-004
7.377016599048862E-004  7.559228909045413E-004  7.745941863098666E-004  7.937266627117391E-004
8.133317112806967E-004  8.334210045493507E-004  8.540065033617174E-004  8.751004639947401E-004
8.967154454554169E-004  9.188643169581699E-004  9.415602655870199E-004  9.648168041470314E-004
9.886477792094670E-004  1.013067379355923E-003  1.038090143626035E-003  1.063730970173582E-003
1.090005125136869E-003  1.116928251727757E-003  1.144516379545421E-003  1.172785934120213E-003
1.201753746692974E-003  1.231437064236279E-003  1.261853559722916E-003  1.293021342648088E-003
1.324958969811485E-003  1.357685456365838E-003  1.391220287138060E-003  1.425583428230385E-003
1.460795338907680E-003  1.496876983778694E-003  1.533849845278020E-003  1.571735936456392E-003
1.610557814086860E-003  1.650338592094813E-003  1.691101955319559E-003  1.732872173615947E-003
1.775674116304247E-003  1.819533266976959E-003  1.864475738671291E-003  1.910528289416476E-003
1.957718338165068E-003  2.006073981117760E-003  2.055624008451360E-003  2.106397921460103E-003
2.158425950120178E-003  2.211739071088131E-003  2.266369026144010E-003  2.322348341089762E-003
2.379710345114687E-003  2.438489190639015E-003  2.498719873647867E-003  2.560438254526881E-003
2.623681079413725E-003  2.688486002075152E-003  2.754891606326452E-003  2.822937429002722E-003
2.892663983499142E-003  2.964112783891491E-003  3.037326369653713E-003  3.112348330984028E-003
3.189223334759332E-003  3.267997151127906E-003  3.348716680760913E-003  3.431429982775632E-003
3.516186303350178E-003  3.603036105042901E-003  3.692031096837418E-003  3.783224264929427E-003
3.876669904273072E-003  3.972423650908592E-003  4.070542515086152E-003  4.171084915208765E-003
4.274110712614328E-003  4.379681247216056E-003  4.487859374022272E-003  4.598709500560474E-003
4.712297625224433E-003  4.828691376567535E-003  4.947960053568685E-003  5.070174666891793E-003
5.195407981164183E-003  5.323734558298839E-003  5.455230801888778E-003  5.589975002695516E-003
5.728047385262123E-003  5.869530155677956E-003  6.014507550523364E-003  6.163065887021214E-003
6.315293614430625E-003  6.471281366707040E-003  6.631122016464775E-003  6.794910730271308E-003
6.962745025309188E-003  7.134724827434101E-003  7.310952530671790E-003  7.491533058179478E-003
7.676573924716401E-003  7.866185300656910E-003  8.060480077583232E-003  8.259573935499582E-003
8.463585411706220E-003  8.672635971375393E-003  8.886850079868442E-003  9.106355276841198E-003
9.331282252179099E-003  9.561764923807961E-003  9.797940517425959E-003  1.003994964820641E-002
1.028793640451721E-002  1.054204843370885E-002  1.080243703002141E-002  1.106925722466279E-002
1.134266787811204E-002  1.162283177470136E-002  1.190991571953663E-002  1.220409063780905E-002
1.250553167656297E-002  1.281441830897413E-002  1.313093444120582E-002  1.345526852190360E-002
1.378761365439455E-002  1.412816771165804E-002  1.447713345413593E-002  1.483471865045327E-002
1.520113620111934E-002  1.557660426528701E-002  1.596134639063969E-002  1.635559164648834E-002
1.675957476015679E-002  1.717353625673264E-002  1.759772260227378E-002  1.803238635055012E-002
1.847778629340857E-002  1.893418761485589E-002  1.940186204894283E-002  1.988108804155170E-002
2.037215091617798E-002  2.087534304380747E-002  2.139096401698970E-002  2.191932082820919E-002
2.246072805266594E-002  2.301550803556679E-002  2.358399108404541E-002  2.416651566382122E-002
2.476342860071686E-002  2.537508528715418E-002  2.600184989374834E-002  2.664409558612450E-002
2.730220474710168E-002  2.797656920435351E-002  2.866759046370286E-002  2.937567994815529E-002
3.010125924287396E-002  3.084476034617393E-002  3.160662592672382E-002  3.238730958711333E-002
3.318727613391616E-002  3.400700185442369E-002  3.484697480022784E-002  3.570769507779437E-002
3.658967514621478E-002  3.749344012232685E-002  3.841952809334795E-002  3.936849043725290E-002
4.034089215105488E-002  4.133731218718476E-002  4.235834379820781E-002  4.340459489002423E-002
4.447668838380733E-002  4.557526258688673E-002  4.670097157278383E-002  4.785448557063166E-002
4.903649136422517E-002  5.024769270092197E-002  5.148881071063464E-002  5.276058433518826E-002
5.406377076826748E-002  5.539914590624341E-002  5.676750481012695E-002  5.816966217893882E-002
5.960645283475728E-002  6.107873221977562E-002  6.258737690560583E-002  6.413328511517266E-002
6.571737725751770E-002  6.734059647577928E-002  6.900390920872915E-002  7.070830576618511E-002
7.245480091860998E-002  7.424443450130154E-002  7.607827203348358E-002  7.795740535271020E-002
7.988295326492041E-002  8.185606221056467E-002  8.387790694716492E-002  8.594969124876181E-002
8.807264862260512E-002  9.024804304358319E-002  9.247716970675919E-002  9.476135579851747E-002
9.710196128674163E-002  9.950037973052235E-002  1.019580391098682E-001  1.044764026758807E-001
1.070569698219741E-001  1.097012769765772E-001  1.124108985178997E-001  1.151874477112924E-001
1.180325776697594E-001  1.209479823382023E-001  1.239353975019560E-001  1.269966018202554E-001
1.301334178852147E-001  1.333477133069810E-001  1.366414018256638E-001  1.400164444507561E-001
1.434748506286909E-001  1.470186794392189E-001  1.506500408213685E-001  1.543710968296547E-001
1.581840629213487E-001  1.620912092755063E-001  1.660948621446098E-001  1.701974052395809E-001
1.744012811490001E-001  1.787089927933791E-001  1.831231049153768E-001  1.876462456067851E-001
1.922811078732749E-001  1.970304512377436E-001  2.018971033833162E-001  2.068839618368835E-001
2.119939956942549E-001  2.172302473879030E-001  2.225958344983847E-001  2.280939516104942E-001
2.337278722152728E-001  2.395009506589895E-001  2.454166241402765E-001  2.514784147565423E-001
2.576899316010182E-001  2.640548729115534E-001  2.705770282724880E-001  2.772602808708126E-001
2.841086098083260E-001  2.911260924705963E-001  2.983169069546024E-001  3.056853345563764E-001
3.132357623199374E-001  3.209726856492264E-001  3.289007109847736E-001  3.370245585460995E-001
3.453490651421915E-001  3.538791870512029E-001  3.626200029713504E-001  3.715767170447441E-001
3.807546619557576E-001  3.901593021060636E-001  3.997962368680904E-001  4.096712039187296E-001
4.197900826555153E-001  4.301588976971053E-001  4.407838224702352E-001  4.516711828852442E-001
4.628274611025144E-001  4.742592993917286E-001  4.859735040867004E-001  4.979770496376596E-001
5.102770827636977E-001  5.228809267079617E-001  5.357960855976458E-001  5.490302489119029E-001
5.625912960600449E-001  5.764873010727130E-001  5.907265374092173E-001  6.053174828832149E-001
6.202688247104358E-001  6.355894646808015E-001  6.512885244583961E-001  6.673753510125167E-001
6.838595221825293E-001  7.007508523804414E-001  7.180593984342346E-001  7.357954655755727E-001
7.539696135752753E-001  7.725926630305827E-001  7.916757018074587E-001  8.112300916421014E-001
8.312674749056655E-001  8.517997815358314E-001  8.728392361397578E-001  8.943983652723981E-001
9.164900048946423E-001  9.391273080155325E-001  9.623237525235292E-001  9.860931492108521E-001
1.010449649996365E+000  1.035407756351271E+000  1.060982327933135E+000  1.087188591433086E+000
1.114042149641501E+000  1.141558990737645E+000  1.169755497808856E+000  1.198648458604736E+000
1.228255075532273E+000  1.258592975897915E+000  1.289680222402591E+000  1.321535323895942E+000
1.354177246396162E+000  1.387625424382167E+000  1.421899772364386E+000  1.457020696741794E+000
1.493009107951318E+000  1.529886432917710E+000  1.567674627810783E+000  1.606396191117703E+000
1.646074177038325E+000  1.686732209211161E+000  1.728394494778667E+000  1.771085838799717E+000
1.814831659018054E+000  1.859658000995807E+000  1.905591553620418E+000
</PP_RAB>
</PP_MESH>
<PP_LOCAL type="real" size="527" columns="4">
-1.978498152683960E+001 -1.978498160799540E+001 -1.978498168716400E+001 -1.978498176439180E+001
-1.978498183972400E+001 -1.978498191320480E+001 -1.978498198487660E+001 -1.978498205478160E+001
-1.978498212296000E+001 -1.978498218945160E+001 -1.978498225429460E+001 -1.978498231752680E+001
-1.978498237918460E+001 -1.978498243930320E+001 -1.978498249791700E+001 -1.978498255505980E+001
-1.978498261076400E+001 -1.978498266506100E+001 -1.978498271798180E+001 -1.978498276955600E+001
-1.978498281981260E+001 -1.978498286877960E+001 -1.978498291648420E+001 -1.978498296295260E+001
-1.978498300821020E+001 -1.978498305228180E+001 -1.978498309519100E+001 -1.978498313696120E+001
-1.978498317761420E+001 -1.978498321717140E+001 -1.978498325565360E+001 -1.978498329308060E+001
-1.978498332947100E+001 -1.978498336484360E+001 -1.978498339921540E+001 -1.978498343260340E+001
-1.978498346502300E+001 -1.978498349648980E+001 -1.978498352701800E+001 -1.978498355662100E+001
-1.978498358531140E+001 -1.978498361310160E+001 -1.978498364000240E+001 -1.978498366602420E+001
-1.978498369117660E+001 -1.978498371546820E+001 -1.978498373890680E+001 -1.978498376149960E+001
-1.978498378325260E+001 -1.978498380417120E+001 -1.978498382425960E+001 -1.978498384352140E+001
-1.978498386195880E+001 -1.978498387957360E+001 -1.978498389636640E+001 -1.978498391233660E+001
-1.978498392748260E+001 -1.978498394180200E+001 -1.978498395529100E+001 -1.978498396794480E+001
-1.978498397975740E+001 -1.978498399072160E+001 -1.978498400082860E+001 -1.978498401006880E+001
-1.978498401843100E+001 -1.978498402590220E+001 -1.978498403246860E+001 -1.978498403811420E+001
-1.978498404282180E+001 -1.978498404657240E+001 -1.978498404934500E+001 -1.978498405111680E+001
-1.978498405186320E+001 -1.978498405155760E+001 -1.978498405017100E+001 -1.978498404767200E+001
-1.978498404402720E+001 -1.978498403920060E+001 -1.978498403315320E+001 -1.978498402584340E+001
-1.978498401722660E+001 -1.978498400725520E+001 -1.978498399587800E+001 -1.978498398304060E+001
-1.978498396868440E+001 -1.978498395274720E+001 -1.978498393516260E+001 -1.978498391585940E+001
-1.978498389476200E+001 -1.978498387178960E+001 -1.978498384685580E+001 -1.978498381986900E+001
-1.978498379073080E+001 -1.978498375933660E+001 -1.978498372557520E+001 -1.978498368932720E+001
-1.978498365046560E+001 -1.978498360885500E+001 -1.978498356435060E+001 -1.978498351679800E+001
-1.978498346603200E+001 -1.978498341187660E+001 -1.978498335414360E+001 -1.978498329263120E+001
-1.978498322712440E+001 -1.978498315739280E+001 -1.978498308318980E+001 -1.978498300425160E+001
-1.978498292029520E+001 -1.978498283101760E+001 -1.978498273609380E+001 -1.978498263517540E+001
-1.978498252788820E+001 -1.978498241383040E+001 -1.978498229257040E+001 -1.978498216364440E+001
-1.978498202655320E+001 -1.978498188076000E+001 -1.978498172568620E+001 -1.978498156070940E+001
-1.978498138515800E+001 -1.978498119830820E+001 -1.978498099937820E+001 -1.978498078752480E+001
-1.978498056183660E+001 -1.978498032132860E+001 -1.978498006493540E+001 -1.978497979150480E+001
-1.978497949978840E+001 -1.978497918843480E+001 -1.978497885597900E+001 -1.978497850083220E+001
-1.978497812127080E+001 -1.978497771542420E+001 -1.978497728126040E+001 -1.978497681657200E+001
-1.978497631895880E+001 -1.978497578581100E+001 -1.978497521428820E+001 -1.978497460129860E+001
-1.978497394347540E+001 -1.978497323714960E+001 -1.978497247832200E+001 -1.978497166263200E+001
-1.978497078532200E+001 -1.978496984120040E+001 -1.978496882459880E+001 -1.978496772932640E+001
-1.978496654861960E+001 -1.978496527508600E+001 -1.978496390064380E+001 -1.978496241645400E+001
-1.978496081284660E+001 -1.978495907923980E+001 -1.978495720404940E+001 -1.978495517459140E+001
-1.978495297697380E+001 -1.978495059597660E+001 -1.978494801492100E+001 -1.978494521552580E+001
-1.978494217774800E+001 -1.978493887960840E+001 -1.978493529699940E+001 -1.978493140347320E+001
-1.978492717000900E+001 -1.978492256475740E+001 -1.978491755275720E+001 -1.978491209562580E+001
-1.978490615121720E+001 -1.978489967324580E+001 -1.978489261087260E+001 -1.978488490824920E+001
-1.978487650401700E+001 -1.978486733075440E+001 -1.978485731436960E+001 -1.978484637343240E+001
-1.978483441843840E+001 -1.978482135099860E+001 -1.978480706295000E+001 -1.978479143537460E+001
-1.978477433752100E+001 -1.978475562561920E+001 -1.978473514157600E+001 -1.978471271154000E+001
-1.978468814432440E+001 -1.978466122967360E+001 -1.978463173635660E+001 -1.978459941007360E+001
-1.978456397115380E+001 -1.978452511202960E+001 -1.978448249446040E+001 -1.978443574648820E+001
-1.978438445909480E+001 -1.978432818253620E+001 -1.978426642232480E+001 -1.978419863482460E+001
-1.978412422243040E+001 -1.978404252828720E+001 -1.978395283051800E+001 -1.978385433591240E+001
-1.978374617303460E+001 -1.978362738470280E+001 -1.978349691979140E+001 -1.978335362430460E+001
-1.978319623166820E+001 -1.978302335218540E+001 -1.978283346160160E+001 -1.978262488872320E+001
-1.978239580203720E+001 -1.978214419528040E+001 -1.978186787190900E+001 -1.978156442843120E+001
-1.978123123656620E+001 -1.978086542420880E+001 -1.978046385519400E+001 -1.978002310786760E+001
-1.977953945250020E+001 -1.977900882760100E+001 -1.977842681522560E+001 -1.977778861540580E+001
-1.977708901988120E+001 -1.977632238535300E+001 -1.977548260654720E+001 -1.977456308943360E+001
-1.977355672501400E+001 -1.977245586417140E+001 -1.977125229414100E+001 -1.976993721724280E+001
-1.976850123258520E+001 -1.976693432151080E+001 -1.976522583760640E+001 -1.976336450212800E+001
-1.976133840569900E+001 -1.975913501710740E+001 -1.975674119996660E+001 -1.975414323788740E+001
-1.975132686865460E+001 -1.974827732768700E+001 -1.974497940080280E+001 -1.974141748601040E+001
-1.973757566370540E+001 -1.973343777430480E+001 -1.972898750198860E+001 -1.972420846288480E+001
-1.971908429574680E+001 -1.971359875294460E+001 -1.970773578946120E+001 -1.970147964755740E+001
-1.969481493484920E+001 -1.968772669374940E+001 -1.968020046052760E+001 -1.967222231264260E+001
-1.966377890346420E+001 -1.965485748400120E+001 -1.964544591175980E+001 -1.963553264733280E+001
-1.962510673975100E+001 -1.961415780197860E+001 -1.960267597820360E+001 -1.959065190474180E+001
-1.957807666645380E+001 -1.956494175056520E+001 -1.955123899970020E+001 -1.953696056579500E+001
-1.952209886637780E+001 -1.950664654449040E+001 -1.949059643330200E+001 -1.947394152625320E+001
-1.945667495334420E+001 -1.943878996399960E+001 -1.942027991676040E+001 -1.940113827591100E+001
-1.938135861501680E+001 -1.936093462724940E+001 -1.933986014228920E+001 -1.931812914952720E+001
-1.929573582723140E+001 -1.927267457730020E+001 -1.924894006518060E+001 -1.922452726449480E+001
-1.919943150587540E+001 -1.917364852947480E+001 -1.914717454055880E+001 -1.912000626754560E+001
-1.909214102178700E+001 -1.906357675831220E+001 -1.903431213667620E+001 -1.900434658095240E+001
-1.897368033781320E+001 -1.894231453151780E+001 -1.891025121451060E+001 -1.887749341219960E+001
-1.884404516035460E+001 -1.880991153343140E+001 -1.877509866200640E+001 -1.873961373738980E+001
-1.870346500139620E+001 -1.866666171919400E+001 -1.862921413313260E+001 -1.859113339548760E+001
-1.855243147817760E+001 -1.851312105770580E+001 -1.847321537389800E+001 -1.843272806145620E+001
-1.839167295395860E+001 -1.835006386072920E+001 -1.830791431801660E+001 -1.826523731715680E+001
-1.822204501391800E+001 -1.817834842500640E+001 -1.813415711980760E+001 -1.808947891781980E+001
-1.804431960490480E+001 -1.799868268441500E+001 -1.795256918237660E+001 -1.790597752915820E+001
-1.785890354329520E+001 -1.781134054621180E+001 -1.776327963928240E+001 -1.771471017672540E+001
-1.766562046891060E+001 -1.761599875041860E+001 -1.756583444515940E+001 -1.751511975661100E+001
-1.746385160422360E+001 -1.741203391679540E+001 -1.735968027966600E+001 -1.730681691448600E+001
-1.725348594785580E+001 -1.719974889816760E+001 -1.714569027871380E+001 -1.709142118001140E+001
-1.703708265621780E+001 -1.698284870077900E+001 -1.692892855683420E+001 -1.687556807067120E+001
-1.682304976436680E+001 -1.677169127973020E+001 -1.672184183310780E+001 -1.667387632287920E+001
-1.662818675185600E+001 -1.658517066824200E+001 -1.654521639375840E+001 -1.650868489776420E+001
-1.647588829279060E+001 -1.644706507021060E+001 -1.642235236457820E+001 -1.640175573092480E+001
-1.638511714020980E+001 -1.637208214335860E+001 -1.636206742281980E+001 -1.635423024054880E+001
-1.634744159913440E+001 -1.634026525125520E+001 -1.633094500856380E+001 -1.631740309240760E+001
-1.629725250158720E+001 -1.626782649871860E+001 -1.622622827419840E+001 -1.616940356069920E+001
-1.609423836076080E+001 -1.599768293787660E+001 -1.587690174391040E+001 -1.572944697127240E+001
-1.555345090885520E+001 -1.534782924160100E+001 -1.511248385195640E+001 -1.484848950301020E+001
-1.455824386169960E+001 -1.424555433746500E+001 -1.391562754161560E+001 -1.357491668354100E+001
-1.323076703886640E+001 -1.289077698009300E+001 -1.256175841756680E+001 -1.224813226530740E+001
-1.194952943365380E+001 -1.166014797201920E+001 -1.137798898429640E+001 -1.110283851233920E+001
-1.083449296746700E+001 -1.057275845409040E+001 -1.031745009201060E+001 -1.006839135012860E+001
-9.825413402875800E+000 -9.588354518658400E+000 -9.357059487304600E+000 -9.131379091186400E+000
-8.911169622512400E+000 -8.696292447412400E+000 -8.486613615889000E+000 -8.282003515523000E+000
-8.082336565987200E+000 -7.887490950878400E+000 -7.697348383113000E+000 -7.511793900053400E+000
-7.330715684633200E+000 -7.154004908949000E+000 -6.981555597065200E+000 -6.813264504101000E+000
-6.649031009005400E+000 -6.488757018764400E+000 -6.332346882101200E+000 -6.179707311036600E+000
-6.030747308934000E+000 -5.885378103902400E+000 -5.743513086628000E+000 -5.605067751887200E+000
-5.469959643136600E+000 -5.338108299702200E+000 -5.209435206190600E+000 -5.083863743819000E+000
-4.961319143438600E+000 -4.841728440063400E+000 -4.725020428766000E+000 -4.611125621828600E+000
-4.499976207063200E+000 -4.391506007229200E+000 -4.285650440495200E+000 -4.182346481898000E+000
-4.081532625759000E+000 -3.983148849028400E+000 -3.887136575524200E+000 -3.793438641041800E+000
-3.701999259310400E+000 -3.612763988773800E+000 -3.525679700172000E+000 -3.440694544909000E+000
-3.357757924179800E+000 -3.276820458845400E+000 -3.197833960032200E+000 -3.120751400441000E+000
-3.045526886348000E+000 -2.972115630280200E+000 -2.900473924348600E+000 -2.830559114227200E+000
-2.762329573755400E+000 -2.695744680155600E+000 -2.630764789846400E+000 -2.567351214839800E+000
-2.505466199707200E+000 -2.445072899099400E+000 -2.386135355810800E+000 -2.328618479370400E+000
-2.272488025149200E+000 -2.217710573972000E+000 -2.164253512220200E+000 -2.112085012413600E+000
-2.061174014261400E+000 -2.011490206169000E+000 -1.963004007191380E+000 -1.915686549420700E+000
-1.869509660798960E+000 -1.824445848344840E+000 -1.780468281784760E+000 -1.737550777578580E+000
-1.695667783330320E+000 -1.654794362574720E+000 -1.614906179930440E+000 -1.575979486611140E+000
-1.537991106285880E+000 -1.500918421280260E+000 -1.464739359110240E+000 -1.429432379340540E+000
-1.394976460759760E+000 -1.361351088864800E+000 -1.328536243646740E+000 -1.296512387671260E+000
-1.265260454446420E+000 -1.234761837070780E+000 -1.204998377155060E+000 -1.175952354010980E+000
-1.147606474100700E+000 -1.119943860740400E+000 -1.092948044052320E+000 -1.066602951158700E+000
-1.040892896612360E+000 -1.015802573057840E+000 -9.913170421175400E-001 -9.674217254977400E-001
-9.441023963089200E-001 -9.213451705952200E-001 -8.991364990682200E-001 -8.774631590399400E-001
-8.563122465501600E-001 -8.356711686836600E-001 -8.155276360726600E-001 -7.958696555798400E-001
-7.766855231578400E-001 -7.579638168809000E-001 -7.396933901443200E-001 -7.218633650281400E-001
-7.044631258203600E-001 -6.874823126967600E-001 -6.709108155526000E-001 -6.547387679834200E-001
-6.389565414105800E-001 -6.235547393486600E-001 -6.085241918109400E-001 -5.938559498496400E-001
-5.795412802280200E-001 -5.655716602205600E-001 -5.519387725388600E-001 -5.386345003794800E-001
-5.256509225914801E-001 -5.129803089601600E-001 -5.006151156047201E-001 -4.885479804867000E-001
-4.767717190267400E-001 -4.652793198270200E-001 -4.540639404967400E-001 -4.431189035783600E-001
-4.324376925718400E-001 -4.220139480548800E-001 -4.118414638966400E-001 -4.019141835626400E-001
-3.922261965088600E-001 -3.827717346627000E-001 -3.735451689886800E-001 -3.645410061371000E-001
-3.557538851733200E-001 -3.471785743859800E-001 -3.388099681721200E-001 -3.306430839974000E-001
-3.226730594294800E-001 -3.148951492431800E-001 -3.073047225950800E-001
</PP_LOCAL>
<PP_SEMILOCAL>
<PP_VNL.1 type="real" size="527" columns="4" L="1">
-2.372145196819800E+001 -2.372145204935400E+001 -2.372145212852200E+001 -2.372145220575000E+001
-2.372145228108400E+001 -2.372145235456400E+001 -2.372145242623600E+001 -2.372145249614000E+001
-2.372145256431800E+001 -2.372145263081000E+001 -2.372145269565400E+001 -2.372145275888600E+001
-2.372145282054400E+001 -2.372145288066200E+001 -2.372145293927600E+001 -2.372145299641800E+001
-2.372145305212200E+001 -2.372145310642000E+001 -2.372145315934000E+001 -2.372145321091400E+001
-2.372145326117200E+001 -2.372145331013800E+001 -2.372145335784400E+001 -2.372145340431200E+001
-2.372145344957000E+001 -2.372145349364000E+001 -2.372145353655000E+001 -2.372145357832000E+001
-2.372145361897400E+001 -2.372145365853000E+001 -2.372145369701200E+001 -2.372145373444000E+001
-2.372145377083000E+001 -2.372145380620200E+001 -2.372145384057400E+001 -2.372145387396200E+001
-2.372145390638200E+001 -2.372145393784800E+001 -2.372145396837600E+001 -2.372145399798000E+001
-2.372145402667000E+001 -2.372145405446000E+001 -2.372145408136000E+001 -2.372145410738200E+001
-2.372145413253600E+001 -2.372145415682600E+001 -2.372145418026600E+001 -2.372145420285800E+001
-2.372145422461000E+001 -2.372145424553000E+001 -2.372145426561800E+001 -2.372145428488000E+001
-2.372145430331600E+001 -2.372145432093200E+001 -2.372145433772400E+001 -2.372145435369400E+001
-2.372145436884000E+001 -2.372145438316000E+001 -2.372145439664800E+001 -2.372145440930200E+001
-2.372145442111400E+001 -2.372145443207800E+001 -2.372145444218400E+001 -2.372145445142400E+001
-2.372145445978600E+001 -2.372145446725800E+001 -2.372145447382400E+001 -2.372145447946800E+001
-2.372145448417600E+001 -2.372145448792600E+001 -2.372145449069800E+001 -2.372145449247000E+001
-2.372145449321400E+001 -2.372145449290800E+001 -2.372145449152200E+001 -2.372145448902200E+001
-2.372145448537600E+001 -2.372145448054800E+001 -2.372145447450000E+001 -2.372145446718800E+001
-2.372145445857000E+001 -2.372145444859600E+001 -2.372145443721800E+001 -2.372145442437800E+001
-2.372145441002000E+001 -2.372145439408000E+001 -2.372145437649400E+001 -2.372145435718800E+001
-2.372145433608600E+001 -2.372145431311000E+001 -2.372145428817200E+001 -2.372145426118200E+001
-2.372145423203800E+001 -2.372145420064000E+001 -2.372145416687200E+001 -2.372145413061800E+001
-2.372145409175000E+001 -2.372145405013000E+001 -2.372145400561800E+001 -2.372145395805600E+001
-2.372145390728000E+001 -2.372145385311400E+001 -2.372145379536800E+001 -2.372145373384200E+001
-2.372145366832000E+001 -2.372145359857000E+001 -2.372145352435000E+001 -2.372145344539000E+001
-2.372145336141200E+001 -2.372145327211000E+001 -2.372145317715800E+001 -2.372145307621000E+001
-2.372145296888800E+001 -2.372145285479400E+001 -2.372145273349400E+001 -2.372145260452400E+001
-2.372145246738200E+001 -2.372145232153600E+001 -2.372145216640200E+001 -2.372145200135800E+001
-2.372145182573400E+001 -2.372145163880400E+001 -2.372145143978600E+001 -2.372145122783600E+001
-2.372145100204000E+001 -2.372145076141400E+001 -2.372145050489000E+001 -2.372145023131400E+001
-2.372144993944000E+001 -2.372144962791000E+001 -2.372144929526200E+001 -2.372144893990200E+001
-2.372144856010600E+001 -2.372144815400000E+001 -2.372144771955200E+001 -2.372144725454800E+001
-2.372144675659000E+001 -2.372144622305800E+001 -2.372144565111400E+001 -2.372144503766000E+001
-2.372144437932400E+001 -2.372144367243400E+001 -2.372144291298400E+001 -2.372144209660800E+001
-2.372144121854000E+001 -2.372144027358400E+001 -2.372143925606200E+001 -2.372143815977600E+001
-2.372143697795000E+001 -2.372143570318400E+001 -2.372143432738200E+001 -2.372143284169400E+001
-2.372143123643400E+001 -2.372142950100400E+001 -2.372142762380600E+001 -2.372142559213200E+001
-2.372142339207400E+001 -2.372142100838400E+001 -2.372141842436000E+001 -2.372141562169200E+001
-2.372141258030800E+001 -2.372140927819000E+001 -2.372140569119600E+001 -2.372140179283400E+001
-2.372139755404000E+001 -2.372139294291000E+001 -2.372138792443000E+001 -2.372138246015400E+001
-2.372137650787000E+001 -2.372137002121400E+001 -2.372136294926600E+001 -2.372135523608800E+001
-2.372134682021800E+001 -2.372133763412400E+001 -2.372132760359200E+001 -2.372131664705800E+001
-2.372130467486800E+001 -2.372129158847000E+001 -2.372127727952000E+001 -2.372126162889800E+001
-2.372124450563800E+001 -2.372122576572400E+001 -2.372120525079600E+001 -2.372118278671000E+001
-2.372115818195400E+001 -2.372113122591400E+001 -2.372110168696600E+001 -2.372106931037200E+001
-2.372103381598400E+001 -2.372099489570600E+001 -2.372095221071400E+001 -2.372090538840600E+001
-2.372085401905800E+001 -2.372079765214200E+001 -2.372073579231000E+001 -2.372066789497800E+001
-2.372059336149400E+001 -2.372051153384600E+001 -2.372042168888600E+001 -2.372032303200200E+001
-2.372021469021000E+001 -2.372009570462400E+001 -2.371996502224000E+001 -2.371982148698400E+001
-2.371966383000400E+001 -2.371949065907800E+001 -2.371930044717600E+001 -2.371909152004400E+001
-2.371886204279200E+001 -2.371861000543200E+001 -2.371833320732200E+001 -2.371802924044200E+001
-2.371769547152600E+001 -2.371732902297000E+001 -2.371692675254600E+001 -2.371648523191800E+001
-2.371600072398600E+001 -2.371546915914000E+001 -2.371488611047800E+001 -2.371424676815800E+001
-2.371354591303800E+001 -2.371277788981600E+001 -2.371193657999200E+001 -2.371101537495200E+001
-2.371000714961600E+001 -2.370890423714400E+001 -2.370769840522800E+001 -2.370638083464800E+001
-2.370494210076200E+001 -2.370337215873000E+001 -2.370166033327600E+001 -2.369979531383600E+001
-2.369776515595600E+001 -2.369555728975600E+001 -2.369315853621800E+001 -2.369055513195800E+001
-2.368773276295800E+001 -2.368467660752600E+001 -2.368137138852400E+001 -2.367780143456400E+001
-2.367395074953800E+001 -2.366980308953000E+001 -2.366534204576000E+001 -2.366055113188200E+001
-2.365541387369400E+001 -2.364991389904800E+001 -2.364403502567800E+001 -2.363776134455800E+001
-2.363107729654400E+001 -2.362396774023800E+001 -2.361641800930200E+001 -2.360841395788400E+001
-2.359994199321200E+001 -2.359098909500000E+001 -2.358154282174400E+001 -2.357159130447800E+001
-2.356112322901200E+001 -2.355012780800400E+001 -2.353859474445800E+001 -2.352651418848200E+001
-2.351387668910600E+001 -2.350067314306000E+001 -2.348689474224400E+001 -2.347253292151600E+001
-2.345757930823200E+001 -2.344202567473000E+001 -2.342586389478400E+001 -2.340908590473000E+001
-2.339168366985400E+001 -2.337364915634200E+001 -2.335497430897400E+001 -2.333565103452400E+001
-2.331567119077000E+001 -2.329502658081200E+001 -2.327370895237800E+001 -2.325171000166000E+001
-2.322902138118400E+001 -2.320563471114800E+001 -2.318154159358800E+001 -2.315673362869800E+001
-2.313120243255400E+001 -2.310493965542600E+001 -2.307793699981600E+001 -2.305018623722800E+001
-2.302167922264200E+001 -2.299240790550800E+001 -2.296236433600000E+001 -2.293154066510400E+001
-2.289992913698600E+001 -2.286752207194600E+001 -2.283431183805000E+001 -2.280029080941000E+001
-2.276545130885400E+001 -2.272978553257600E+001 -2.269328545416200E+001 -2.265594270521200E+001
-2.261774842965600E+001 -2.257869310871200E+001 -2.253876635336400E+001 -2.249795666125400E+001
-2.245625113486800E+001 -2.241363515813200E+001 -2.237009202872600E+001 -2.232560254390000E+001
-2.228014453811400E+001 -2.223369237164000E+001 -2.218621637030600E+001 -2.213768221777600E+001
-2.208805030344400E+001 -2.203727503086400E+001 -2.198530409393600E+001 -2.193207773066200E+001
-2.187752796733000E+001 -2.182157786928800E+001 -2.176414081817000E+001 -2.170511983934800E+001
-2.164440700750400E+001 -2.158188296234600E+001 -2.151741657046600E+001 -2.145086477303000E+001
-2.138207266191600E+001 -2.131087382905200E+001 -2.123709103432200E+001 -2.116053723646000E+001
-2.108101702807000E+001 -2.099832851015000E+001 -2.091226563262800E+001 -2.082262101521200E+001
-2.072918924709400E+001 -2.063177064464400E+001 -2.053017542331200E+001 -2.042422821413200E+001
-2.031377282707200E+001 -2.019867713433400E+001 -2.007883791798400E+001 -1.995418549991420E+001
-1.982468795022960E+001 -1.969035465503140E+001 -1.955123901856900E+001 -1.940744007983240E+001
-1.925910284157580E+001 -1.910641714128180E+001 -1.894961493862560E+001 -1.878896595136800E+001
-1.862477163882500E+001 -1.845735760561560E+001 -1.828706457382280E+001 -1.811423814410000E+001
-1.793921763080940E+001 -1.776232430879400E+001 -1.758384944701520E+001 -1.740404252582920E+001
-1.722310004077620E+001 -1.704115528867140E+001 -1.685826951462880E+001 -1.667442477441060E+001
-1.648951883687580E+001 -1.630336241591760E+001 -1.611567897792480E+001 -1.592610731708440E+001
-1.573420702776920E+001 -1.553946693941900E+001 -1.534131653390160E+001 -1.513914036613260E+001
-1.493229558263500E+001 -1.472013278857860E+001 -1.450202072396480E+001 -1.427737540030180E+001
-1.404569441021800E+001 -1.380659693712200E+001 -1.355986947446040E+001 -1.330551638470500E+001
-1.304381320661820E+001 -1.277535907753120E+001 -1.250112271854460E+001 -1.222247390493840E+001
-1.194118874243400E+001 -1.165941137508040E+001 -1.137953948294840E+001 -1.110398174442760E+001
-1.083474127255400E+001 -1.057275845409040E+001 -1.031745009201060E+001 -1.006839135012860E+001
-9.825413402875800E+000 -9.588354518658400E+000 -9.357059487304600E+000 -9.131379091186400E+000
-8.911169622512400E+000 -8.696292447412400E+000 -8.486613615889000E+000 -8.282003515523000E+000
-8.082336565987200E+000 -7.887490950878400E+000 -7.697348383113000E+000 -7.511793900053400E+000
-7.330715684633200E+000 -7.154004908949000E+000 -6.981555597065200E+000 -6.813264504101000E+000
-6.649031009005400E+000 -6.488757018764400E+000 -6.332346882101200E+000 -6.179707311036600E+000
-6.030747308934000E+000 -5.885378103902400E+000 -5.743513086628000E+000 -5.605067751887200E+000
-5.469959643136600E+000 -5.338108299702200E+000 -5.209435206190600E+000 -5.083863743819000E+000
-4.961319143438600E+000 -4.841728440063400E+000 -4.725020428766000E+000 -4.611125621828600E+000
-4.499976207063200E+000 -4.391506007229200E+000 -4.285650440495200E+000 -4.182346481898000E+000
-4.081532625759000E+000 -3.983148849028400E+000 -3.887136575524200E+000 -3.793438641041800E+000
-3.701999259310400E+000 -3.612763988773800E+000 -3.525679700172000E+000 -3.440694544909000E+000
-3.357757924179800E+000 -3.276820458845400E+000 -3.197833960032200E+000 -3.120751400441000E+000
-3.045526886348000E+000 -2.972115630280200E+000 -2.900473924348600E+000 -2.830559114227200E+000
-2.762329573755400E+000 -2.695744680155600E+000 -2.630764789846400E+000 -2.567351214839800E+000
-2.505466199707200E+000 -2.445072899099400E+000 -2.386135355810800E+000 -2.328618479370400E+000
-2.272488025149200E+000 -2.217710573972000E+000 -2.164253512220200E+000 -2.112085012413600E+000
-2.061174014261400E+000 -2.011490206169000E+000 -1.963004007191380E+000 -1.915686549420700E+000
-1.869509660798960E+000 -1.824445848344840E+000 -1.780468281784760E+000 -1.737550777578580E+000
-1.695667783330320E+000 -1.654794362574720E+000 -1.614906179930440E+000 -1.575979486611140E+000
-1.537991106285880E+000 -1.500918421280260E+000 -1.464739359110240E+000 -1.429432379340540E+000
-1.394976460759760E+000 -1.361351088864800E+000 -1.328536243646740E+000 -1.296512387671260E+000
-1.265260454446420E+000 -1.234761837070780E+000 -1.204998377155060E+000 -1.175952354010980E+000
-1.147606474100700E+000 -1.119943860740400E+000 -1.092948044052320E+000 -1.066602951158700E+000
-1.040892896612360E+000 -1.015802573057840E+000 -9.913170421175400E-001 -9.674217254977400E-001
-9.441023963089200E-001 -9.213451705952200E-001 -8.991364990682200E-001 -8.774631590399400E-001
-8.563122465501600E-001 -8.356711686836600E-001 -8.155276360726600E-001 -7.958696555798400E-001
-7.766855231578400E-001 -7.579638168809000E-001 -7.396933901443200E-001 -7.218633650281400E-001
-7.044631258203600E-001 -6.874823126967600E-001 -6.709108155526000E-001 -6.547387679834200E-001
-6.389565414105800E-001 -6.235547393486600E-001 -6.085241918109400E-001 -5.938559498496400E-001
-5.795412802280200E-001 -5.655716602205600E-001 -5.519387725388600E-001 -5.386345003794800E-001
-5.256509225914801E-001 -5.129803089601600E-001 -5.006151156047201E-001 -4.885479804867000E-001
-4.767717190267400E-001 -4.652793198270200E-001 -4.540639404967400E-001 -4.431189035783600E-001
-4.324376925718400E-001 -4.220139480548800E-001 -4.118414638966400E-001 -4.019141835626400E-001
-3.922261965088600E-001 -3.827717346627000E-001 -3.735451689886800E-001 -3.645410061371000E-001
-3.557538851733200E-001 -3.471785743859800E-001 -3.388099681721200E-001 -3.306430839974000E-001
-3.226730594294800E-001 -3.148951492431800E-001 -3.073047225950800E-001
</PP_VNL.1>
<PP_VNL.2 type="real" size="527" columns="4" L="2">
-5.354900253256600E+001 -5.354900261372200E+001 -5.354900269289000E+001 -5.354900277011800E+001
-5.354900284545000E+001 -5.354900291893200E+001 -5.354900299060400E+001 -5.354900306050800E+001
-5.354900312868600E+001 -5.354900319517800E+001 -5.354900326002200E+001 -5.354900332325400E+001
-5.354900338491200E+001 -5.354900344503000E+001 -5.354900350364400E+001 -5.354900356078600E+001
-5.354900361649000E+001 -5.354900367078800E+001 -5.354900372370800E+001 -5.354900377528200E+001
-5.354900382553800E+001 -5.354900387450600E+001 -5.354900392221000E+001 -5.354900396867800E+001
-5.354900401393600E+001 -5.354900405800800E+001 -5.354900410091600E+001 -5.354900414268600E+001
-5.354900418334000E+001 -5.354900422289600E+001 -5.354900426137800E+001 -5.354900429880600E+001
-5.354900433519600E+001 -5.354900437056800E+001 -5.354900440494000E+001 -5.354900443832800E+001
-5.354900447074600E+001 -5.354900450221400E+001 -5.354900453274000E+001 -5.354900456234400E+001
-5.354900459103400E+001 -5.354900461882200E+001 -5.354900464572400E+001 -5.354900467174400E+001
-5.354900469689600E+001 -5.354900472118600E+001 -5.354900474462400E+001 -5.354900476721600E+001
-5.354900478896800E+001 -5.354900480988600E+001 -5.354900482997400E+001 -5.354900484923400E+001
-5.354900486767000E+001 -5.354900488528200E+001 -5.354900490207400E+001 -5.354900491804200E+001
-5.354900493318600E+001 -5.354900494750200E+001 -5.354900496098800E+001 -5.354900497364000E+001
-5.354900498545000E+001 -5.354900499641000E+001 -5.354900500651200E+001 -5.354900501574800E+001
-5.354900502410600E+001 -5.354900503157200E+001 -5.354900503813200E+001 -5.354900504377200E+001
-5.354900504847200E+001 -5.354900505221400E+001 -5.354900505497800E+001 -5.354900505674000E+001
-5.354900505747600E+001 -5.354900505715800E+001 -5.354900505576000E+001 -5.354900505324600E+001
-5.354900504958600E+001 -5.354900504474200E+001 -5.354900503867600E+001 -5.354900503134400E+001
-5.354900502270400E+001 -5.354900501270800E+001 -5.354900500130200E+001 -5.354900498843400E+001
-5.354900497404400E+001 -5.354900495807000E+001 -5.354900494044200E+001 -5.354900492109400E+001
-5.354900489994600E+001 -5.354900487691800E+001 -5.354900485192400E+001 -5.354900482486800E+001
-5.354900479565600E+001 -5.354900476418000E+001 -5.354900473032800E+001 -5.354900469398000E+001
-5.354900465500800E+001 -5.354900461327600E+001 -5.354900456863800E+001 -5.354900452093800E+001
-5.354900447000800E+001 -5.354900441567400E+001 -5.354900435774200E+001 -5.354900429601200E+001
-5.354900423026600E+001 -5.354900416026800E+001 -5.354900408577400E+001 -5.354900400651200E+001
-5.354900392220000E+001 -5.354900383253200E+001 -5.354900373717600E+001 -5.354900363578000E+001
-5.354900352796800E+001 -5.354900341333200E+001 -5.354900329143400E+001 -5.354900316180400E+001
-5.354900302393800E+001 -5.354900287728800E+001 -5.354900272127200E+001 -5.354900255525600E+001
-5.354900237855800E+001 -5.354900219044400E+001 -5.354900199012200E+001 -5.354900177673200E+001
-5.354900154935000E+001 -5.354900130697400E+001 -5.354900104852200E+001 -5.354900077282200E+001
-5.354900047860400E+001 -5.354900016449000E+001 -5.354899982899200E+001 -5.354899947049200E+001
-5.354899908723400E+001 -5.354899867731000E+001 -5.354899823865200E+001 -5.354899776900800E+001
-5.354899726593200E+001 -5.354899672676000E+001 -5.354899614859600E+001 -5.354899552828400E+001
-5.354899486239000E+001 -5.354899414716400E+001 -5.354899337852400E+001 -5.354899255201400E+001
-5.354899166277800E+001 -5.354899070550600E+001 -5.354898967440600E+001 -5.354898856314800E+001
-5.354898736481800E+001 -5.354898607185400E+001 -5.354898467599000E+001 -5.354898316818200E+001
-5.354898153853400E+001 -5.354897977621800E+001 -5.354897786937600E+001 -5.354897580502000E+001
-5.354897356892800E+001 -5.354897114551200E+001 -5.354896851769000E+001 -5.354896566673200E+001
-5.354896257210600E+001 -5.354895921129200E+001 -5.354895555958200E+001 -5.354895158987000E+001
-5.354894727241200E+001 -5.354894257455400E+001 -5.354893746045600E+001 -5.354893189076000E+001
-5.354892582224800E+001 -5.354891920745000E+001 -5.354891199422400E+001 -5.354890412528400E+001
-5.354889553768600E+001 -5.354888616226000E+001 -5.354887592298800E+001 -5.354886473631800E+001
-5.354885251040000E+001 -5.354883914426400E+001 -5.354882452690000E+001 -5.354880853625400E+001
-5.354879103811200E+001 -5.354877188489200E+001 -5.354875091429200E+001 -5.354872794782600E+001
-5.354870278919600E+001 -5.354867522251000E+001 -5.354864501032200E+001 -5.354861189148600E+001
-5.354857557877800E+001 -5.354853575630400E+001 -5.354849207664800E+001 -5.354844415772800E+001
-5.354839157937600E+001 -5.354833387954400E+001 -5.354827055018800E+001 -5.354820103272400E+001
-5.354812471306600E+001 -5.354804091619200E+001 -5.354794890019800E+001 -5.354784784979200E+001
-5.354773686919600E+001 -5.354761497439200E+001 -5.354748108467200E+001 -5.354733401342600E+001
-5.354717245812400E+001 -5.354699498943600E+001 -5.354680003941000E+001 -5.354658588868600E+001
-5.354635065264800E+001 -5.354609226649600E+001 -5.354580846915600E+001 -5.354549678600000E+001
-5.354515451032800E+001 -5.354477868359400E+001 -5.354436607433800E+001 -5.354391315586400E+001
-5.354341608265200E+001 -5.354287066557200E+001 -5.354227234598000E+001 -5.354161616882000E+001
-5.354089675487800E+001 -5.354010827241800E+001 -5.353924440845600E+001 -5.353829834002200E+001
-5.353726270576600E+001 -5.353612957842600E+001 -5.353489043866400E+001 -5.353353615090400E+001
-5.353205694182600E+001 -5.353044238231000E+001 -5.352868137354800E+001 -5.352676213821400E+001
-5.352467221744000E+001 -5.352239847444000E+001 -5.351992710544600E+001 -5.351724365860600E+001
-5.351433306122000E+001 -5.351117965557000E+001 -5.350776724328800E+001 -5.350407913788800E+001
-5.350009822476800E+001 -5.349580702764000E+001 -5.349118777989800E+001 -5.348622249922000E+001
-5.348089306326200E+001 -5.347518128417400E+001 -5.346906897945600E+001 -5.346253803666600E+001
-5.345557046951400E+001 -5.344814846314200E+001 -5.344025440658600E+001 -5.343187091084400E+001
-5.342298081140600E+001 -5.341356715459800E+001 -5.340361316749000E+001 -5.339310221168600E+001
-5.338201772160800E+001 -5.337034312825400E+001 -5.335806176961800E+001 -5.334515678911000E+001
-5.333161102331200E+001 -5.331740688036600E+001 -5.330252621017800E+001 -5.328695016736000E+001
-5.327065906764600E+001 -5.325363223819800E+001 -5.323584786195000E+001 -5.321728281578200E+001
-5.319791250210800E+001 -5.317771067305400E+001 -5.315664924624000E+001 -5.313469811083200E+001
-5.311182492234000E+001 -5.308799488438600E+001 -5.306317051543200E+001 -5.303731139829400E+001
-5.301037390998800E+001 -5.298231092930600E+001 -5.295307151929800E+001 -5.292260058158000E+001
-5.289083847921200E+001 -5.285772062464000E+001 -5.282317702891000E+001 -5.278713180818800E+001
-5.274950264324400E+001 -5.271020018739800E+001 -5.266912741801000E+001 -5.262617892642200E+001
-5.258124014090800E+001 -5.253418647691000E+001 -5.248488240860600E+001 -5.243318045559200E+001
-5.237892007827400E+001 -5.232192647544000E+001 -5.226200927739600E+001 -5.219896112813400E+001
-5.213255615009000E+001 -5.206254828548800E+001 -5.198866950868800E+001 -5.191062790478400E+001
-5.182810561076600E+001 -5.174075661695600E+001 -5.164820442828000E+001 -5.155003958726400E+001
-5.144581706358400E+001 -5.133505351852000E+001 -5.121722445706600E+001 -5.109176128562200E+001
-5.095804829938000E+001 -5.081541963082600E+001 -5.066315619918800E+001 -5.050048271049400E+001
-5.032656476897400E+001 -5.014050617321600E+001 -4.994134648450200E+001 -4.972805897036000E+001
-4.949954904335400E+001 -4.925465333342200E+001 -4.899213955137400E+001 -4.871070732135400E+001
-4.840899018035800E+001 -4.808555896301800E+001 -4.773892680881200E+001 -4.736755604580600E+001
-4.696986721866200E+001 -4.654425053782000E+001 -4.608908002956200E+001 -4.560273066160800E+001
-4.508359870363200E+001 -4.453012555474400E+001 -4.394082522795200E+001 -4.331431562274800E+001
-4.264935363864600E+001 -4.194487408255800E+001 -4.120003219928800E+001 -4.041424950521600E+001
-3.958726242962200E+001 -3.871917306526400E+001 -3.781050110085000E+001 -3.686223575482800E+001
-3.587588625655800E+001 -3.485352913409400E+001 -3.379785027710400E+001 -3.271217946289000E+001
-3.160051478165000E+001 -3.046753419854400E+001 -2.931859137576400E+001 -2.815969288465400E+001
-2.699745410892600E+001 -2.583903152127400E+001 -2.469202965206400E+001 -2.356438199769600E+001
-2.246420635692200E+001 -2.139963662420400E+001 -2.037863485154800E+001 -1.940878929135920E+001
-1.849710595037800E+001 -1.764980262813220E+001 -1.687211510953800E+001 -1.616812470440620E+001
-1.554061426378120E+001 -1.499095586674320E+001 -1.451902756656740E+001 -1.412314942911400E+001
-1.380002187226060E+001 -1.354464431625620E+001 -1.335019283656480E+001 -1.320784642132840E+001
-1.310657774423700E+001 -1.303297078801680E+001 -1.297119667364580E+001 -1.290336860508640E+001
-1.281059838831140E+001 -1.267517595312880E+001 -1.248437531292200E+001 -1.223645696044540E+001
-1.194952943365380E+001 -1.166014797201920E+001 -1.137798898429640E+001 -1.110283851233920E+001
-1.083449296746700E+001 -1.057275845409040E+001 -1.031745009201060E+001 -1.006839135012860E+001
-9.825413402875800E+000 -9.588354518658400E+000 -9.357059487304600E+000 -9.131379091186400E+000
-8.911169622512400E+000 -8.696292447412400E+000 -8.486613615889000E+000 -8.282003515523000E+000
-8.082336565987200E+000 -7.887490950878400E+000 -7.697348383113000E+000 -7.511793900053400E+000
-7.330715684633200E+000 -7.154004908949000E+000 -6.981555597065200E+000 -6.813264504101000E+000
-6.649031009005400E+000 -6.488757018764400E+000 -6.332346882101200E+000 -6.179707311036600E+000
-6.030747308934000E+000 -5.885378103902400E+000 -5.743513086628000E+000 -5.605067751887200E+000
-5.469959643136600E+000 -5.338108299702200E+000 -5.209435206190600E+000 -5.083863743819000E+000
-4.961319143438600E+000 -4.841728440063400E+000 -4.725020428766000E+000 -4.611125621828600E+000
-4.499976207063200E+000 -4.391506007229200E+000 -4.285650440495200E+000 -4.182346481898000E+000
-4.081532625759000E+000 -3.983148849028400E+000 -3.887136575524200E+000 -3.793438641041800E+000
-3.701999259310400E+000 -3.612763988773800E+000 -3.525679700172000E+000 -3.440694544909000E+000
-3.357757924179800E+000 -3.276820458845400E+000 -3.197833960032200E+000 -3.120751400441000E+000
-3.045526886348000E+000 -2.972115630280200E+000 -2.900473924348600E+000 -2.830559114227200E+000
-2.762329573755400E+000 -2.695744680155600E+000 -2.630764789846400E+000 -2.567351214839800E+000
-2.505466199707200E+000 -2.445072899099400E+000 -2.386135355810800E+000 -2.328618479370400E+000
-2.272488025149200E+000 -2.217710573972000E+000 -2.164253512220200E+000 -2.112085012413600E+000
-2.061174014261400E+000 -2.011490206169000E+000 -1.963004007191380E+000 -1.915686549420700E+000
-1.869509660798960E+000 -1.824445848344840E+000 -1.780468281784760E+000 -1.737550777578580E+000
-1.695667783330320E+000 -1.654794362574720E+000 -1.614906179930440E+000 -1.575979486611140E+000
-1.537991106285880E+000 -1.500918421280260E+000 -1.464739359110240E+000 -1.429432379340540E+000
-1.394976460759760E+000 -1.361351088864800E+000 -1.328536243646740E+000 -1.296512387671260E+000
-1.265260454446420E+000 -1.234761837070780E+000 -1.204998377155060E+000 -1.175952354010980E+000
-1.147606474100700E+000 -1.119943860740400E+000 -1.092948044052320E+000 -1.066602951158700E+000
-1.040892896612360E+000 -1.015802573057840E+000 -9.913170421175400E-001 -9.674217254977400E-001
-9.441023963089200E-001 -9.213451705952200E-001 -8.991364990682200E-001 -8.774631590399400E-001
-8.563122465501600E-001 -8.356711686836600E-001 -8.155276360726600E-001 -7.958696555798400E-001
-7.766855231578400E-001 -7.579638168809000E-001 -7.396933901443200E-001 -7.218633650281400E-001
-7.044631258203600E-001 -6.874823126967600E-001 -6.709108155526000E-001 -6.547387679834200E-001
-6.389565414105800E-001 -6.235547393486600E-001 -6.085241918109400E-001 -5.938559498496400E-001
-5.795412802280200E-001 -5.655716602205600E-001 -5.519387725388600E-001 -5.386345003794800E-001
-5.256509225914801E-001 -5.129803089601600E-001 -5.006151156047201E-001 -4.885479804867000E-001
-4.767717190267400E-001 -4.652793198270200E-001 -4.540639404967400E-001 -4.431189035783600E-001
-4.324376925718400E-001 -4.220139480548800E-001 -4.118414638966400E-001 -4.019141835626400E-001
-3.922261965088600E-001 -3.827717346627000E-001 -3.735451689886800E-001 -3.645410061371000E-001
-3.557538851733200E-001 -3.471785743859800E-001 -3.388099681721200E-001 -3.306430839974000E-001
-3.226730594294800E-001 -3.148951492431800E-001 -3.073047225950800E-001
</PP_VNL.2>
<PP_VNL.3 type="real" size="527" columns="4" L="3">
-2.843384175534200E+001 -2.843384183649800E+001 -2.843384191566600E+001 -2.843384199289400E+001
-2.843384206822600E+001 -2.843384214170600E+001 -2.843384221337800E+001 -2.843384228328400E+001
-2.843384235146200E+001 -2.843384241795400E+001 -2.843384248279600E+001 -2.843384254603000E+001
-2.843384260768600E+001 -2.843384266780600E+001 -2.843384272642000E+001 -2.843384278356200E+001
-2.843384283926600E+001 -2.843384289356400E+001 -2.843384294648400E+001 -2.843384299805800E+001
-2.843384304831400E+001 -2.843384309728200E+001 -2.843384314498600E+001 -2.843384319145400E+001
-2.843384323671200E+001 -2.843384328078400E+001 -2.843384332369400E+001 -2.843384336546400E+001
-2.843384340611600E+001 -2.843384344567400E+001 -2.843384348415600E+001 -2.843384352158200E+001
-2.843384355797400E+001 -2.843384359334600E+001 -2.843384362771800E+001 -2.843384366110600E+001
-2.843384369352600E+001 -2.843384372499200E+001 -2.843384375552000E+001 -2.843384378512400E+001
-2.843384381381400E+001 -2.843384384160400E+001 -2.843384386850400E+001 -2.843384389452600E+001
-2.843384391967800E+001 -2.843384394397000E+001 -2.843384396740800E+001 -2.843384399000200E+001
-2.843384401175400E+001 -2.843384403267200E+001 -2.843384405276200E+001 -2.843384407202200E+001
-2.843384409046000E+001 -2.843384410807400E+001 -2.843384412486800E+001 -2.843384414083800E+001
-2.843384415598400E+001 -2.843384417030200E+001 -2.843384418379200E+001 -2.843384419644600E+001
-2.843384420825800E+001 -2.843384421922200E+001 -2.843384422932800E+001 -2.843384423856800E+001
-2.843384424693000E+001 -2.843384425440000E+001 -2.843384426096600E+001 -2.843384426661200E+001
-2.843384427131800E+001 -2.843384427506800E+001 -2.843384427784000E+001 -2.843384427961200E+001
-2.843384428035600E+001 -2.843384428005000E+001 -2.843384427866200E+001 -2.843384427616200E+001
-2.843384427251600E+001 -2.843384426768800E+001 -2.843384426163800E+001 -2.843384425432600E+001
-2.843384424570800E+001 -2.843384423573400E+001 -2.843384422435400E+001 -2.843384421151400E+001
-2.843384419715600E+001 -2.843384418121400E+001 -2.843384416362600E+001 -2.843384414431800E+001
-2.843384412321600E+001 -2.843384410023800E+001 -2.843384407530000E+001 -2.843384404830600E+001
-2.843384401916200E+001 -2.843384398776000E+001 -2.843384395399000E+001 -2.843384391773200E+001
-2.843384387886000E+001 -2.843384383723800E+001 -2.843384379272200E+001 -2.843384374515400E+001
-2.843384369437400E+001 -2.843384364020200E+001 -2.843384358245000E+001 -2.843384352091600E+001
-2.843384345538600E+001 -2.843384338563000E+001 -2.843384331140000E+001 -2.843384323243000E+001
-2.843384314844000E+001 -2.843384305912400E+001 -2.843384296416000E+001 -2.843384286319600E+001
-2.843384275585800E+001 -2.843384264174600E+001 -2.843384252042400E+001 -2.843384239143000E+001
-2.843384225426400E+001 -2.843384210839000E+001 -2.843384195322600E+001 -2.843384178814800E+001
-2.843384161248600E+001 -2.843384142551600E+001 -2.843384122645200E+001 -2.843384101445000E+001
-2.843384078859800E+001 -2.843384054791000E+001 -2.843384029131800E+001 -2.843384001767000E+001
-2.843383972571200E+001 -2.843383941409200E+001 -2.843383908134200E+001 -2.843383872587000E+001
-2.843383834595200E+001 -2.843383793971200E+001 -2.843383750511400E+001 -2.843383703994600E+001
-2.843383654180400E+001 -2.843383600807200E+001 -2.843383543590800E+001 -2.843383482221000E+001
-2.843383416360400E+001 -2.843383345641600E+001 -2.843383269663800E+001 -2.843383187990000E+001
-2.843383100143400E+001 -2.843383005603800E+001 -2.843382903803200E+001 -2.843382794121000E+001
-2.843382675879400E+001 -2.843382548337600E+001 -2.843382410685600E+001 -2.843382262037600E+001
-2.843382101424200E+001 -2.843381927785000E+001 -2.843381739958800E+001 -2.843381536674400E+001
-2.843381316539200E+001 -2.843381078027800E+001 -2.843380819468400E+001 -2.843380539028200E+001
-2.843380234698600E+001 -2.843379904276200E+001 -2.843379545344400E+001 -2.843379155252000E+001
-2.843378731089800E+001 -2.843378269665400E+001 -2.843377767473800E+001 -2.843377220667200E+001
-2.843376625021000E+001 -2.843375975894800E+001 -2.843375268192000E+001 -2.843374496314000E+001
-2.843373654109200E+001 -2.843372734818800E+001 -2.843371731014800E+001 -2.843370634533400E+001
-2.843369436401400E+001 -2.843368126755000E+001 -2.843366694749800E+001 -2.843365128464000E+001
-2.843363414788400E+001 -2.843361539309000E+001 -2.843359486175800E+001 -2.843357237958400E+001
-2.843354775488400E+001 -2.843352077685400E+001 -2.843349121365800E+001 -2.843345881033200E+001
-2.843342328647000E+001 -2.843338433369400E+001 -2.843334161287000E+001 -2.843329475105600E+001
-2.843324333815000E+001 -2.843318692321000E+001 -2.843312501043000E+001 -2.843305705471800E+001
-2.843298245686600E+001 -2.843290055825200E+001 -2.843281063505000E+001 -2.843271189190000E+001
-2.843260345499800E+001 -2.843248436455000E+001 -2.843235356655000E+001 -2.843220990382800E+001
-2.843205210631200E+001 -2.843187878044200E+001 -2.843168839771400E+001 -2.843147928224200E+001
-2.843124959734200E+001 -2.843099733105000E+001 -2.843072028054000E+001 -2.843041603538800E+001
-2.843008195967800E+001 -2.842971517288200E+001 -2.842931252955000E+001 -2.842887059779400E+001
-2.842838563660000E+001 -2.842785357203800E+001 -2.842726997244800E+001 -2.842663002274400E+001
-2.842592849799400E+001 -2.842515973652800E+001 -2.842431761281200E+001 -2.842339551048400E+001
-2.842238629592600E+001 -2.842128229288200E+001 -2.842007525866200E+001 -2.841875636260600E+001
-2.841731616745800E+001 -2.841574461447600E+001 -2.841403101305800E+001 -2.841216403574800E+001
-2.841013171946800E+001 -2.840792147381400E+001 -2.840552009714000E+001 -2.840291380112600E+001
-2.840008824426000E+001 -2.839702857455600E+001 -2.839371948147600E+001 -2.839014525682400E+001
-2.838628986392200E+001 -2.838213701413800E+001 -2.837767024940800E+001 -2.837287302906800E+001
-2.836772881905200E+001 -2.836222118124200E+001 -2.835633386066000E+001 -2.835005086815200E+001
-2.834335655627200E+001 -2.833623568631200E+001 -2.832867348470400E+001 -2.832065568743000E+001
-2.831216857151400E+001 -2.830319897319800E+001 -2.829373429289400E+001 -2.828376248745400E+001
-2.827327205078600E+001 -2.826225198411000E+001 -2.825069175749800E+001 -2.823858126443800E+001
-2.822591077126600E+001 -2.821267086330600E+001 -2.819885238943000E+001 -2.818444640666400E+001
-2.816944412620800E+001 -2.815383686206400E+001 -2.813761598323200E+001 -2.812077287016600E+001
-2.810329887603000E+001 -2.808518529299000E+001 -2.806642332369600E+001 -2.804700405786600E+001
-2.802691845378600E+001 -2.800615732438800E+001 -2.798471132750200E+001 -2.796257095974400E+001
-2.793972655347400E+001 -2.791616827613200E+001 -2.789188613124800E+001 -2.786686996032200E+001
-2.784110944469600E+001 -2.781459410649400E+001 -2.778731330759000E+001 -2.775925624549600E+001
-2.773041194493800E+001 -2.770076924376600E+001 -2.767031677174200E+001 -2.763904292055400E+001
-2.760693580327800E+001 -2.757398320133800E+001 -2.754017249677600E+001 -2.750549058752000E+001
-2.746992378306800E+001 -2.743345767783800E+001 -2.739607699922200E+001 -2.735776542716000E+001
-2.731850538193200E+001 -2.727827777666200E+001 -2.723706173093800E+001 -2.719483424194800E+001
-2.715156980949200E+001 -2.710724001140600E+001 -2.706181302615600E+001 -2.701525309976000E+001
-2.696751995474800E+001 -2.691856813964000E+001 -2.686834631847600E+001 -2.681679650112600E+001
-2.676385321679600E+001 -2.670944263499400E+001 -2.665348164054800E+001 -2.659587687192000E+001
-2.653652373511600E+001 -2.647530540889400E+001 -2.641209186080200E+001 -2.634673889759600E+001
-2.627908727786000E+001 -2.620896191904000E+001 -2.613617123531600E+001 -2.606050664673200E+001
-2.598174230336200E+001 -2.589963507083600E+001 -2.581392482475800E+001 -2.572433510125800E+001
-2.563057414836200E+001 -2.553233641806200E+001 -2.542930453109200E+001 -2.532115173545400E+001
-2.520754486534000E+001 -2.508814778928400E+001 -2.496262531527800E+001 -2.483064749676200E+001
-2.469189425755000E+001 -2.454606022717000E+001 -2.439285965211400E+001 -2.423203122523800E+001
-2.406334265690800E+001 -2.388659479993800E+001 -2.370162513801000E+001 -2.350831045624200E+001
-2.330656853425400E+001 -2.309635873726400E+001 -2.287768142920600E+001 -2.265057619191400E+001
-2.241511890355400E+001 -2.217141780360600E+001 -2.191960874589600E+001 -2.165984990991000E+001
-2.139231629843800E+001 -2.111719439124000E+001 -2.083467734638000E+001 -2.054496114034400E+001
-2.024824201509800E+001 -1.994471555516340E+001 -1.963457765300420E+001 -1.931802753799340E+001
-1.899527294395260E+001 -1.866653737186220E+001 -1.833206926586600E+001 -1.799215276113240E+001
-1.764711948518020E+001 -1.729736071317040E+001 -1.694333901854320E+001 -1.658559846086960E+001
-1.622477235289340E+001 -1.586158777414740E+001 -1.549686624227600E+001 -1.513152026646780E+001
-1.476654580912780E+001 -1.440301088901060E+001 -1.404204062534860E+001 -1.368479896718700E+001
-1.333246725947120E+001 -1.298621978260820E+001 -1.264719655202780E+001 -1.231647397678340E+001
-1.199503434221040E+001 -1.168373503608860E+001 -1.138327130807040E+001 -1.109411890064260E+001
-1.081646544544100E+001 -1.055014224247940E+001 -1.029456697832320E+001 -1.004871410144020E+001
-9.811138512047201E+000 -9.580090423342000E+000 -9.353775691075400E+000 -9.130838034263400E+000
-8.911169622512400E+000 -8.696292447412400E+000 -8.486613615889000E+000 -8.282003515523000E+000
-8.082336565987200E+000 -7.887490950878400E+000 -7.697348383113000E+000 -7.511793900053400E+000
-7.330715684633200E+000 -7.154004908949000E+000 -6.981555597065200E+000 -6.813264504101000E+000
-6.649031009005400E+000 -6.488757018764400E+000 -6.332346882101200E+000 -6.179707311036600E+000
-6.030747308934000E+000 -5.885378103902400E+000 -5.743513086628000E+000 -5.605067751887200E+000
-5.469959643136600E+000 -5.338108299702200E+000 -5.209435206190600E+000 -5.083863743819000E+000
-4.961319143438600E+000 -4.841728440063400E+000 -4.725020428766000E+000 -4.611125621828600E+000
-4.499976207063200E+000 -4.391506007229200E+000 -4.285650440495200E+000 -4.182346481898000E+000
-4.081532625759000E+000 -3.983148849028400E+000 -3.887136575524200E+000 -3.793438641041800E+000
-3.701999259310400E+000 -3.612763988773800E+000 -3.525679700172000E+000 -3.440694544909000E+000
-3.357757924179800E+000 -3.276820458845400E+000 -3.197833960032200E+000 -3.120751400441000E+000
-3.045526886348000E+000 -2.972115630280200E+000 -2.900473924348600E+000 -2.830559114227200E+000
-2.762329573755400E+000 -2.695744680155600E+000 -2.630764789846400E+000 -2.567351214839800E+000
-2.505466199707200E+000 -2.445072899099400E+000 -2.386135355810800E+000 -2.328618479370400E+000
-2.272488025149200E+000 -2.217710573972000E+000 -2.164253512220200E+000 -2.112085012413600E+000
-2.061174014261400E+000 -2.011490206169000E+000 -1.963004007191380E+000 -1.915686549420700E+000
-1.869509660798960E+000 -1.824445848344840E+000 -1.780468281784760E+000 -1.737550777578580E+000
-1.695667783330320E+000 -1.654794362574720E+000 -1.614906179930440E+000 -1.575979486611140E+000
-1.537991106285880E+000 -1.500918421280260E+000 -1.464739359110240E+000 -1.429432379340540E+000
-1.394976460759760E+000 -1.361351088864800E+000 -1.328536243646740E+000 -1.296512387671260E+000
-1.265260454446420E+000 -1.234761837070780E+000 -1.204998377155060E+000 -1.175952354010980E+000
-1.147606474100700E+000 -1.119943860740400E+000 -1.092948044052320E+000 -1.066602951158700E+000
-1.040892896612360E+000 -1.015802573057840E+000 -9.913170421175400E-001 -9.674217254977400E-001
-9.441023963089200E-001 -9.213451705952200E-001 -8.991364990682200E-001 -8.774631590399400E-001
-8.563122465501600E-001 -8.356711686836600E-001 -8.155276360726600E-001 -7.958696555798400E-001
-7.766855231578400E-001 -7.579638168809000E-001 -7.396933901443200E-001 -7.218633650281400E-001
-7.044631258203600E-001 -6.874823126967600E-001 -6.709108155526000E-001 -6.547387679834200E-001
-6.389565414105800E-001 -6.235547393486600E-001 -6.085241918109400E-001 -5.938559498496400E-001
-5.795412802280200E-001 -5.655716602205600E-001 -5.519387725388600E-001 -5.386345003794800E-001
-5.256509225914801E-001 -5.129803089601600E-001 -5.006151156047201E-001 -4.885479804867000E-001
-4.767717190267400E-001 -4.652793198270200E-001 -4.540639404967400E-001 -4.431189035783600E-001
-4.324376925718400E-001 -4.220139480548800E-001 -4.118414638966400E-001 -4.019141835626400E-001
-3.922261965088600E-001 -3.827717346627000E-001 -3.735451689886800E-001 -3.645410061371000E-001
-3.557538851733200E-001 -3.471785743859800E-001 -3.388099681721200E-001 -3.306430839974000E-001
-3.226730594294800E-001 -3.148951492431800E-001 -3.073047225950800E-001
</PP_VNL.3>
</PP_SEMILOCAL>
<PP_NONLOCAL>
<PP_BETA.1 type="real" size="527" columns="4" index="1" label="4p" angular_momentum="1" cutoff_radius_index="381"
cutoff_radius="2.215738587611800E+000" ultrasoft_cutoff_radius="0.000000000000000E+000">
-5.834882675756503E-008 -6.126685683510855E-008 -6.433081785943739E-008 -6.754800785036503E-008
-7.092609029807920E-008 -7.447311098226279E-008 -7.819751851579981E-008 -8.210818403325027E-008
-8.621442231462017E-008 -9.052601397293336E-008 -9.505322875063495E-008 -9.980684998094663E-008
-1.047982002727238E-007 -1.100391684795425E-007 -1.155422380177744E-007 -1.213205166005847E-007
-1.273877674592535E-007 -1.337584421255938E-007 -1.404477148538085E-007 -1.474715187642513E-007
-1.548465837941245E-007 -1.625904765462641E-007 -1.707216421313887E-007 -1.792594481016374E-007
-1.882242305826586E-007 -1.976373427114849E-007 -2.075212054980028E-007 -2.178993612286238E-007
-2.287965295421365E-007 -2.402386663085846E-007 -2.522530254540332E-007 -2.648682238759366E-007
-2.781143096054190E-007 -2.920228333789011E-007 -3.066269237882550E-007 -3.219613661893897E-007
-3.380626855574513E-007 -3.549692334850502E-007 -3.727212795320799E-007 -3.913611071430635E-007
-4.109331143615163E-007 -4.314839195819216E-007 -4.530624725891462E-007 -4.757201711520813E-007
-4.995109834469976E-007 -5.244915766034746E-007 -5.507214516814042E-007 -5.782630853931878E-007
-6.071820789189679E-007 -6.375473141607002E-007 -6.694311178102230E-007 -7.029094336256861E-007
-7.380620033195562E-007 -7.749725564967760E-007 -8.137290100867435E-007 -8.544236777550439E-007
-8.971534897825388E-007 -9.420202239438449E-007 -9.891307479299664E-007 -1.038597273897593E-006
-1.090537625743905E-006 -1.145075519752445E-006 -1.202340859270560E-006 -1.262470044126651E-006
-1.325606295518248E-006 -1.391899997150994E-006 -1.461509053434725E-006 -1.534599265596610E-006
-1.611344726602454E-006 -1.691928235823924E-006 -1.776541734450913E-006 -1.865386762673405E-006
-1.958674939726672E-006 -2.056628467951524E-006 -2.159480662050134E-006 -2.267476504818332E-006
-2.380873230671794E-006 -2.499940938348084E-006 -2.624963234254617E-006 -2.756237907985970E-006
-2.894077641633024E-006 -3.038810754551368E-006 -3.190781985391321E-006 -3.350353313219364E-006
-3.517904819724306E-006 -3.693835594523454E-006 -3.878564685759411E-006 -4.072532098220327E-006
-4.276199841391495E-006 -4.490053029917101E-006 -4.714601039081245E-006 -4.950378718098939E-006
-5.197947664058431E-006 -5.457897559605846E-006 -5.730847577484122E-006 -6.017447855363911E-006
-6.318381044386592E-006 -6.634363935171694E-006 -6.966149165156548E-006 -7.314527011272921E-006
-7.680327272330626E-006 -8.064421245503665E-006 -8.467723801671473E-006 -8.891195564558176E-006
-9.335845198832564E-006 -9.802731812648978E-006 -1.029296748035602E-005 -1.080771989130563E-005
-1.134821513123039E-005 -1.191574060261172E-005 -1.251164809117188E-005 -1.313735698570465E-005
-1.379435765889305E-005 -1.448421501728126E-005 -1.520857222868791E-005 -1.596915463610610E-005
-1.676777386729196E-005 -1.760633214993959E-005 -1.848682684253822E-005 -1.941135519196649E-005
-2.038211932893171E-005 -2.140143151322415E-005 -2.247171964134670E-005 -2.359553302954269E-005
-2.477554848604014E-005 -2.601457668702027E-005 -2.731556887136831E-005 -2.868162387031345E-005
-3.011599548862226E-005 -3.162210025480959E-005 -3.320352555918423E-005 -3.486403819860598E-005
-3.660759334881799E-005 -3.843834398532899E-005 -4.036065077556451E-005 -4.237909246558446E-005
-4.449847678649666E-005 -4.672385190596303E-005 -4.906051845286695E-005 -5.151404214287511E-005
-5.409026703575512E-005 -5.679532945562671E-005 -5.963567260728243E-005 -6.261806192365826E-005
-6.574960118071533E-005 -6.903774941842572E-005 -7.249033870778409E-005 -7.611559280661227E-005
-7.992214674815677E-005 -8.391906740967026E-005 -8.811587510925580E-005 -9.252256628326359E-005
-9.714963729745545E-005 -1.020081094493073E-004 -1.071095552207519E-004 -1.124661258434439E-004
-1.180905802435219E-004 -1.239963154328989E-004 -1.301973984216177E-004 -1.367085997254328E-004
-1.435454285497229E-004 -1.507241697325810E-004 -1.582619225364417E-004 -1.661766413787892E-004
-1.744871786009643E-004 -1.832133293750803E-004 -1.923758788580746E-004 -2.019966517030395E-004
-2.120985640478000E-004 -2.227056781028973E-004 -2.338432594708344E-004 -2.455378373313922E-004
-2.578172676372036E-004 -2.707107994708840E-004 -2.842491447204890E-004 -2.984645512402298E-004
-3.133908796702302E-004 -3.290636840991497E-004 -3.455202967608974E-004 -3.627999169678267E-004
-3.809437044934250E-004 -3.999948776234051E-004 -4.199988161140373E-004 -4.410031692992093E-004
-4.630579696045206E-004 -4.862157517406151E-004 -5.105316778582960E-004 -5.360636689632352E-004
-5.628725429066261E-004 -5.910221592760785E-004 -6.205795715355261E-004 -6.516151867756828E-004
-6.842029334568328E-004 -7.184204375401215E-004 -7.543492074335881E-004 -7.920748281876659E-004
-8.316871654059637E-004 -8.732805793571468E-004 -9.169541497997075E-004 -9.628119120522308E-004
-1.010963104873833E-003 -1.061522430747589E-003 -1.114610329184170E-003 -1.170353263696605E-003
-1.228884023140487E-003 -1.290342038116502E-003 -1.354873713217126E-003 -1.422632775886326E-003
-1.493780642734575E-003 -1.568486804181963E-003 -1.646929228348635E-003 -1.729294785140831E-003
-1.815779691567381E-003 -1.906589979324558E-003 -2.001941985777661E-003 -2.102062869505911E-003
-2.207191151633302E-003 -2.317577284247811E-003 -2.433484247242201E-003 -2.555188175019891E-003
-2.682979014545252E-003 -2.817161216297668E-003 -2.958054459797009E-003 -3.105994415395584E-003
-3.261333544166959E-003 -3.424441937796223E-003 -3.595708200441922E-003 -3.775540374693405E-003
-3.964366913789051E-003 -4.162637702424985E-003 -4.370825128558155E-003 -4.589425208739059E-003
-4.818958769639169E-003 -5.059972688555963E-003 -5.313041195816838E-003 -5.578767242160425E-003
-5.857783934297436E-003 -6.150756042003850E-003 -6.458381580304341E-003 -6.781393470421058E-003
-7.120561283335872E-003 -7.476693070052584E-003 -7.850637282774646E-003 -8.243284791408165E-003
-8.655571000059942E-003 -9.088478068308077E-003 -9.543037242383954E-003 -1.002033130143947E-002
-1.052149712444865E-002 -1.104772838346141E-002 -1.160027836914713E-002 -1.218046295488459E-002
-1.278966370571525E-002 -1.342933113896266E-002 -1.410098814337036E-002 -1.480623356387260E-002
-1.554674595942651E-002 -1.632428754151111E-002 -1.714070830096777E-002 -1.799795033138361E-002
-1.889805235690422E-002 -1.984315447298329E-002 -2.083550310830708E-002 -2.187745621637493E-002
-2.297148870517268E-002 -2.412019811317725E-002 -2.532631054012645E-002 -2.659268684013908E-002
-2.792232908508798E-002 -2.931838730501374E-002 -3.078416651214664E-002 -3.232313401375490E-002
-3.393892701854521E-002 -3.563536053923498E-002 -3.741643559284785E-002 -3.928634769773710E-002
-4.124949566410098E-002 -4.331049067165746E-002 -4.547416562435283E-002 -4.774558476789095E-002
-5.013005355058364E-002 -5.263312870185724E-002 -5.526062849599120E-002 -5.801864315955350E-002
-6.091354537184493E-002 -6.395200079547815E-002 -6.714097856115413E-002 -7.048776161460267E-002
-7.399995681525542E-002 -7.768550465542673E-002 -8.155268844305615E-002 -8.561014276330831E-002
-8.986686100032995E-002 -9.433220166259695E-002 -9.901589321066512E-002 -1.039280370350192E-001
-1.090791081734180E-001 -1.144799532889809E-001 -1.201417853528336E-001 -1.260761743875058E-001
-1.322950335235965E-001 -1.388105995091260E-001 -1.456354066764349E-001 -1.527822532237110E-001
-1.602641584963849E-001 -1.680943097622358E-001 -1.762859967577493E-001 -1.848525320365744E-001
-1.938071548810894E-001 -2.031629162308388E-001 -2.129325417442647E-001 -2.231282697347523E-001
-2.337616603143474E-001 -2.448433716292564E-001 -2.563828985907793E-001 -2.683882689896016E-001
-2.808656913408371E-001 -2.938191482471033E-001 -3.072499284989170E-001 -3.211560905825777E-001
-3.355318497445687E-001 -3.503668803245109E-001 -3.656455247355105E-001 -3.813459003258539E-001
-3.974388954516029E-001 -4.138870465444976E-001 -4.306432888746339E-001 -4.476495752454658E-001
-4.648353592012047E-001 -4.821159426975485E-001 -4.993906928436849E-001 -5.165411386041098E-001
-5.334289665889839E-001 -5.498939457000918E-001 -5.657518238812677E-001 -5.807922570404001E-001
-5.947768508675728E-001 -6.074374212425558E-001 -6.184746086111892E-001 -6.275570163333767E-001
-6.343210825634442E-001 -6.383719392551792E-001 -6.392855593481517E-001 -6.366125421908740E-001
-6.298839347218222E-001 -6.186195273131020E-001 -6.023390920120986E-001 -5.805770384237923E-001
-5.529009372257008E-001 -5.189342889232386E-001 -4.783837786552681E-001 -4.310710368361781E-001
-3.769685989034412E-001 -3.162393046648913E-001 -2.492777816602285E-001 -1.767519089595989E-001
-9.964126428075773E-002 -1.926854776683443E-002  6.268108724254991E-002  1.441588770031448E-001
2.227763452322122E-001  2.958615134021739E-001  3.605543608257442E-001  4.139471425585404E-001
4.532725044470354E-001  4.761380198856653E-001  4.807995756798058E-001  4.664578279195015E-001
4.335517183655173E-001  3.840108130155520E-001  3.214138715182845E-001  2.509839659030794E-001
1.793290875267330E-001  1.138085944539626E-001  6.136567729346461E-002  2.660909458246327E-002
8.849554112235807E-003  7.983484177869110E-004 -1.714027187787794E-003 -1.287132562727669E-003
-2.843117392469467E-004  0.000000000000000E+000  0.000000000000000E+000  0.000000000000000E+000
0.000000000000000E+000  0.000000000000000E+000  0.000000000000000E+000  0.000000000000000E+000
0.000000000000000E+000  0.000000000000000E+000  0.000000000000000E+000  0.000000000000000E+000
0.000000000000000E+000  0.000000000000000E+000  0.000000000000000E+000  0.000000000000000E+000
0.000000000000000E+000  0.000000000000000E+000  0.000000000000000E+000  0.000000000000000E+000
0.000000000000000E+000  0.000000000000000E+000  0.000000000000000E+000  0.000000000000000E+000
0.000000000000000E+000  0.000000000000000E+000  0.000000000000000E+000  0.000000000000000E+000
0.000000000000000E+000  0.000000000000000E+000  0.000000000000000E+000  0.000000000000000E+000
0.000000000000000E+000  0.000000000000000E+000  0.000000000000000E+000  0.000000000000000E+000
0.000000000000000E+000  0.000000000000000E+000  0.000000000000000E+000  0.000000000000000E+000
0.000000000000000E+000  0.000000000000000E+000  0.000000000000000E+000  0.000000000000000E+000
0.000000000000000E+000  0.000000000000000E+000  0.000000000000000E+000  0.000000000000000E+000
0.000000000000000E+000  0.000000000000000E+000  0.000000000000000E+000  0.000000000000000E+000
0.000000000000000E+000  0.000000000000000E+000  0.000000000000000E+000  0.000000000000000E+000
0.000000000000000E+000  0.000000000000000E+000  0.000000000000000E+000  0.000000000000000E+000
0.000000000000000E+000  0.000000000000000E+000  0.000000000000000E+000  0.000000000000000E+000
0.000000000000000E+000  0.000000000000000E+000  0.000000000000000E+000  0.000000000000000E+000
0.000000000000000E+000  0.000000000000000E+000  0.000000000000000E+000  0.000000000000000E+000
0.000000000000000E+000  0.000000000000000E+000  0.000000000000000E+000  0.000000000000000E+000
0.000000000000000E+000  0.000000000000000E+000  0.000000000000000E+000  0.000000000000000E+000
0.000000000000000E+000  0.000000000000000E+000  0.000000000000000E+000  0.000000000000000E+000
0.000000000000000E+000  0.000000000000000E+000  0.000000000000000E+000  0.000000000000000E+000
0.000000000000000E+000  0.000000000000000E+000  0.000000000000000E+000  0.000000000000000E+000
0.000000000000000E+000  0.000000000000000E+000  0.000000000000000E+000  0.000000000000000E+000
0.000000000000000E+000  0.000000000000000E+000  0.000000000000000E+000  0.000000000000000E+000
0.000000000000000E+000  0.000000000000000E+000  0.000000000000000E+000  0.000000000000000E+000
0.000000000000000E+000  0.000000000000000E+000  0.000000000000000E+000  0.000000000000000E+000
0.000000000000000E+000  0.000000000000000E+000  0.000000000000000E+000  0.000000000000000E+000
0.000000000000000E+000  0.000000000000000E+000  0.000000000000000E+000  0.000000000000000E+000
0.000000000000000E+000  0.000000000000000E+000  0.000000000000000E+000  0.000000000000000E+000
0.000000000000000E+000  0.000000000000000E+000  0.000000000000000E+000  0.000000000000000E+000
0.000000000000000E+000  0.000000000000000E+000  0.000000000000000E+000  0.000000000000000E+000
0.000000000000000E+000  0.000000000000000E+000  0.000000000000000E+000  0.000000000000000E+000
0.000000000000000E+000  0.000000000000000E+000  0.000000000000000E+000  0.000000000000000E+000
0.000000000000000E+000  0.000000000000000E+000  0.000000000000000E+000  0.000000000000000E+000
0.000000000000000E+000  0.000000000000000E+000  0.000000000000000E+000  0.000000000000000E+000
0.000000000000000E+000  0.000000000000000E+000  0.000000000000000E+000
</PP_BETA.1>
<PP_BETA.2 type="real" size="527" columns="4" index="2" label="3d" angular_momentum="2" cutoff_radius_index="377"
cutoff_radius="2.009701590784700E+000" ultrasoft_cutoff_radius="0.000000000000000E+000">
-2.767623128989252E-009 -2.977811206361775E-009 -3.203962088570910E-009 -3.447288076244941E-009
-3.709093729934205E-009 -3.990782315778518E-009 -4.293863848542592E-009 -4.619963024111392E-009
-4.970827926090004E-009 -5.348339396929889E-009 -5.754521120342751E-009 -6.191550469428380E-009
-6.661770178670339E-009 -7.167700902357841E-009 -7.712054726767716E-009 -8.297749708526830E-009
-8.927925517099607E-009 -9.605960265245337E-009 -1.033548861766894E-008 -1.112042127494082E-008
-1.196496593712625E-008 -1.287364985950168E-008 -1.385134412127075E-008 -1.490328973737751E-008
-1.603512575338133E-008 -1.725291947400687E-008 -1.856319898740559E-008 -1.997298815948379E-008
-2.148984428587264E-008 -2.312189860338898E-008 -2.487789987815291E-008 -2.676726130399641E-008
-2.880011096258729E-008 -3.098734611575954E-008 -3.334069162107054E-008 -3.587276278373886E-008
-3.859713298187150E-008 -4.152840642752141E-008 -4.468229645353583E-008 -4.807570974596940E-008
-5.172683697345930E-008 -5.565525029950998E-008 -5.988200830031354E-008 -6.442976885055182E-008
-6.932291058232502E-008 -7.458766356825040E-008 -8.025224992927194E-008 -8.634703512094395E-008
-9.290469070908695E-008 -9.996036950743746E-008 -1.075518940160974E-007 -1.157199591708711E-007
-1.245083504903656E-007 -1.339641787901993E-007 -1.441381327225348E-007 -1.550847504945375E-007
-1.668627122225140E-007 -1.795351544886464E-007 -1.931700087866538E-007 -2.078403656704700E-007
-2.236248665580137E-007 -2.406081252902437E-007 -2.588811817052455E-007 -2.785419896586311E-007
-2.996959421062735E-007 -3.224564360640058E-007 -3.469454804726754E-007 -3.732943502269303E-007
-4.016442898733872E-007 -4.321472707507009E-007 -4.649668056293536E-007 -5.002788252183509E-007
-5.382726212372250E-007 -5.791518611079060E-007 -6.231356797062402E-007 -6.704598540241947E-007
-7.213780670405682E-007 -7.761632675730715E-007 -8.351091334024997E-007 -8.985316455103433E-007
-9.667707818687672E-007 -1.040192339861114E-006 -1.119189897101918E-006 -1.204186921166404E-006
-1.295639039537060E-006 -1.394036481935213E-006 -1.499906708127396E-006 -1.613817235292994E-006
-1.736378680104716E-006 -1.868248031830723E-006 -2.010132173998994E-006 -2.162791673499878E-006
-2.327044857437303E-006 -2.503772199576118E-006 -2.693921039899026E-006 -2.898510662565812E-006
-3.118637759491636E-006 -3.355482308826260E-006 -3.610313899840203E-006 -3.884498538114622E-006
-4.179505967508416E-006 -4.496917548141971E-006 -4.838434732613882E-006 -5.205888185886471E-006
-5.601247597702533E-006 -6.026632240125133E-006 -6.484322326778166E-006 -6.976771234655133E-006
-7.506618653999855E-006 -8.076704736710429E-006 -8.690085319098247E-006 -9.350048300562250E-006
-1.006013126594690E-005 -1.082414044600550E-005 -1.164617111756710E-005 -1.253062955270941E-005
-1.348225663453794E-005 -1.450615326610284E-005 -1.560780770858799E-005 -1.679312499522387E-005
-1.806845857852345E-005 -1.944064438036684E-005 -2.091703742734813E-005 -2.250555126762545E-005
-2.421470038043659E-005 -2.605364580541663E-005 -2.803224423614216E-005 -3.016110084083705E-005
-3.245162609313759E-005 -3.491609691728015E-005 -3.756772247516874E-005 -4.042071494759818E-005
-4.349036568864976E-005 -4.679312716106205E-005 -5.034670109122539E-005 -5.417013331578716E-005
-5.828391582763284E-005 -6.271009656751279E-005 -6.747239754900498E-005 -7.259634194902092E-005
-7.810939084414594E-005 -8.404109032440781E-005 -9.042322977187068E-005 -9.729001215078728E-005
-1.046782372204898E-004 -1.126274986510447E-004 -1.211803960961483E-004 -1.303827633574390E-004
-1.402839138604868E-004 -1.509369047549777E-004 -1.623988210512700E-004 -1.747310813120971E-004
-1.879997665335015E-004 -2.022759739726201E-004 -2.176361978129150E-004 -2.341627387007536E-004
-2.519441443409239E-004 -2.710756835041593E-004 -2.916598559779142E-004 -3.138069411827771E-004
-3.376355883830573E-004 -3.632734516409812E-004 -3.908578729023637E-004 -4.205366168573957E-004
-4.524686614953070E-004 -4.868250485674714E-004 -5.237897984923892E-004 -5.635608945765376E-004
-6.063513417947202E-004 -6.523903057672891E-004 -7.019243379976632E-004 -7.552186938896924E-004
-8.125587505564062E-004 -8.742515319584974E-004 -9.406273494795297E-004 -1.012041566653454E-003
-1.088876497416123E-003 -1.171543447956915E-003 -1.260484913002638E-003 -1.356176938179840E-003
-1.459131660974718E-003 -1.569900043749579E-003 -1.689074813281311E-003 -1.817293622373315E-003
-1.955242450252774E-003 -2.103659259716812E-003 -2.263337930332549E-003 -2.435132488437101E-003
-2.619961656228591E-003 -2.818813743904663E-003 -3.032751910583460E-003 -3.262919821656551E-003
-3.510547732281049E-003 -3.776959028913215E-003 -4.063577263159405E-003 -4.371933714749449E-003
-4.703675523160419E-003 -5.060574430334125E-003 -5.444536180060635E-003 -5.857610622947063E-003
-6.302002579495369E-003 -6.780083517643476E-003 -7.294404105268897E-003 -7.847707702551327E-003
-8.442944863835585E-003 -9.083288923690664E-003 -9.772152747271083E-003 -1.051320673090575E-002
-1.131039814500331E-002 -1.216797191802617E-002 -1.309049296734071E-002 -1.408287019032726E-002
-1.515038223721600E-002 -1.629870519573876E-002 -1.753394232687591E-002 -1.886265600081675E-002
-2.029190199267947E-002 -2.182926630870268E-002 -2.348290472546474E-002 -2.526158523732428E-002
-2.717473362065854E-002 -2.923248233776360E-002 -3.144572301838417E-002 -3.382616277290277E-002
-3.638638460818117E-002 -3.913991223510094E-002 -4.210127957580539E-002 -4.528610529881840E-002
-4.871117273129206E-002 -5.239451552008927E-002 -5.635550943674975E-002 -6.061497074611188E-002
-6.519526158409156E-002 -7.012040281720916E-002 -7.541619488446724E-002 -8.111034715163729E-002
-8.723261633820767E-002 -9.381495460884033E-002 -1.008916679534485E-001 -1.084995855132385E-001
-1.166782405439532E-001 -1.254700637420465E-001 -1.349205896939883E-001 -1.450786772439876E-001
-1.559967446093734E-001 -1.677310201069110E-001 -1.803418093855539E-001 -1.938937800919662E-001
-2.084562649231879E-001 -2.241035840462393E-001 -2.409153878848802E-001 -2.589770212895690E-001
-2.783799101159082E-001 -2.992219712381591E-001 -3.216080470154882E-001 -3.456503652096319E-001
-3.714690253181719E-001 -3.991925122383282E-001 -4.289582381064441E-001 -4.609131130672945E-001
-4.952141456091057E-001 -5.320290729513207E-001 -5.715370217886983E-001 -6.139291994697427E-001
-6.594096154152075E-001 -7.081958322558018E-001 -7.605197457794136E-001 -8.166283923174428E-001
-8.767847816603095E-001 -9.412687529565413E-001 -1.010377850315184E+000 -1.084428213972832E+000
-1.163755481899355E+000 -1.248715695577368E+000 -1.339686202382827E+000 -1.437066545502525E+000
-1.541279330617168E+000 -1.652771056646330E+000 -1.772012895658988E+000 -1.899501404576185E+000
-2.035759148511473E+000 -2.181335212470417E+000 -2.336805574641770E+000 -2.502773310635490E+000
-2.679868593714609E+000 -2.868748451329948E+000 -3.070096233046595E+000 -3.284620739270847E+000
-3.513054954006657E+000 -3.756154318217234E+000 -4.014694473258467E+000 -4.289468396308093E+000
-4.581282841835710E+000 -4.890953994991929E+000 -5.219302234519161E+000 -5.567145894551014E+000
-5.935293906697991E+000 -6.324537196477965E+000 -6.735638701718539E+000 -7.169321875616570E+000
-7.626257534215243E+000 -8.107048907845298E+000 -8.612214759474222E+000 -9.142170440857845E+000
-9.697206771093766E+000 -1.027746664294046E+001 -1.088291929163274E+001 -1.151333220054597E+001
-1.216824066977117E+001 -1.284691513944045E+001 -1.354832644142290E+001 -1.427110925285711E+001
-1.501352414463338E+001 -1.577341875902662E+001 -1.654818881410612E+001 -1.733473981866498E+001
-1.812945058931435E+001 -1.892813988879564E+001 -1.972603774719790E+001 -2.051776327920685E+001
-2.129731106102578E+001 -2.205804836759011E+001 -2.279272577733058E+001 -2.349350380731188E+001
-2.415199832102407E+001 -2.475934742557362E+001 -2.530630241206476E+001 -2.578334495848774E+001
-2.618083227391194E+001 -2.648917108500659E+001 -2.669902032582047E+001 -2.680152107607588E+001
-2.678855070509256E+001 -2.665299634405040E+001 -2.638904078334490E+001 -2.599245176278383E+001
-2.546086351609727E+001 -2.479403751078516E+001 -2.399408778654491E+001 -2.306565536146403E+001
-2.201601607406635E+001 -2.085510717646221E+001 -1.959546016197241E+001 -1.825203079709153E+001
-1.684192212179525E+001 -1.538400213599494E+001 -1.389842469969518E+001 -1.240606937796353E+001
-1.092792295876920E+001 -9.484431467549532E+000 -8.094855977761171E+000 -6.776667716517931E+000
-5.545017394657929E+000 -4.412310109992794E+000 -3.387910789644661E+000 -2.477995368741830E+000
-1.685553908516191E+000 -1.010538286454360E+000 -4.501372081637489E-001  8.486273647232735E-004
3.495655111862465E-001  6.046381890049695E-001  7.757127027462417E-001  8.730465403910307E-001
9.071756393715875E-001  8.886780822817657E-001  8.280412281936054E-001  7.356222482763609E-001
6.216712661171903E-001  4.963617918675646E-001  3.697467304993142E-001  2.515346048608908E-001
1.505678682263123E-001  7.389328710061083E-002  2.534958884241775E-002  3.652474154994680E-003
0.000000000000000E+000  0.000000000000000E+000  0.000000000000000E+000  0.000000000000000E+000
0.000000000000000E+000  0.000000000000000E+000  0.000000000000000E+000  0.000000000000000E+000
0.000000000000000E+000  0.000000000000000E+000  0.000000000000000E+000  0.000000000000000E+000
0.000000000000000E+000  0.000000000000000E+000  0.000000000000000E+000  0.000000000000000E+000
0.000000000000000E+000  0.000000000000000E+000  0.000000000000000E+000  0.000000000000000E+000
0.000000000000000E+000  0.000000000000000E+000  0.000000000000000E+000  0.000000000000000E+000
0.000000000000000E+000  0.000000000000000E+000  0.000000000000000E+000  0.000000000000000E+000
0.000000000000000E+000  0.000000000000000E+000  0.000000000000000E+000  0.000000000000000E+000
0.000000000000000E+000  0.000000000000000E+000  0.000000000000000E+000  0.000000000000000E+000
0.000000000000000E+000  0.000000000000000E+000  0.000000000000000E+000  0.000000000000000E+000
0.000000000000000E+000  0.000000000000000E+000  0.000000000000000E+000  0.000000000000000E+000
0.000000000000000E+000  0.000000000000000E+000  0.000000000000000E+000  0.000000000000000E+000
0.000000000000000E+000  0.000000000000000E+000  0.000000000000000E+000  0.000000000000000E+000
0.000000000000000E+000  0.000000000000000E+000  0.000000000000000E+000  0.000000000000000E+000
0.000000000000000E+000  0.000000000000000E+000  0.000000000000000E+000  0.000000000000000E+000
0.000000000000000E+000  0.000000000000000E+000  0.000000000000000E+000  0.000000000000000E+000
0.000000000000000E+000  0.000000000000000E+000  0.000000000000000E+000  0.000000000000000E+000
0.000000000000000E+000  0.000000000000000E+000  0.000000000000000E+000  0.000000000000000E+000
0.000000000000000E+000  0.000000000000000E+000  0.000000000000000E+000  0.000000000000000E+000
0.000000000000000E+000  0.000000000000000E+000  0.000000000000000E+000  0.000000000000000E+000
0.000000000000000E+000  0.000000000000000E+000  0.000000000000000E+000  0.000000000000000E+000
0.000000000000000E+000  0.000000000000000E+000  0.000000000000000E+000  0.000000000000000E+000
0.000000000000000E+000  0.000000000000000E+000  0.000000000000000E+000  0.000000000000000E+000
0.000000000000000E+000  0.000000000000000E+000  0.000000000000000E+000  0.000000000000000E+000
0.000000000000000E+000  0.000000000000000E+000  0.000000000000000E+000  0.000000000000000E+000
0.000000000000000E+000  0.000000000000000E+000  0.000000000000000E+000  0.000000000000000E+000
0.000000000000000E+000  0.000000000000000E+000  0.000000000000000E+000  0.000000000000000E+000
0.000000000000000E+000  0.000000000000000E+000  0.000000000000000E+000  0.000000000000000E+000
0.000000000000000E+000  0.000000000000000E+000  0.000000000000000E+000  0.000000000000000E+000
0.000000000000000E+000  0.000000000000000E+000  0.000000000000000E+000  0.000000000000000E+000
0.000000000000000E+000  0.000000000000000E+000  0.000000000000000E+000  0.000000000000000E+000
0.000000000000000E+000  0.000000000000000E+000  0.000000000000000E+000  0.000000000000000E+000
0.000000000000000E+000  0.000000000000000E+000  0.000000000000000E+000  0.000000000000000E+000
0.000000000000000E+000  0.000000000000000E+000  0.000000000000000E+000  0.000000000000000E+000
0.000000000000000E+000  0.000000000000000E+000  0.000000000000000E+000  0.000000000000000E+000
0.000000000000000E+000  0.000000000000000E+000  0.000000000000000E+000  0.000000000000000E+000
0.000000000000000E+000  0.000000000000000E+000  0.000000000000000E+000  0.000000000000000E+000
0.000000000000000E+000  0.000000000000000E+000  0.000000000000000E+000
</PP_BETA.2>
<PP_BETA.3 type="real" size="527" columns="4" index="3" label="4f" angular_momentum="3" cutoff_radius_index="389"
cutoff_radius="2.693347626273800E+000" ultrasoft_cutoff_radius="0.000000000000000E+000">
-1.313937025961967E-015 -1.448643412268521E-015 -1.597160057478686E-015 -1.760902805757299E-015
-1.941433070777913E-015 -2.140471561670478E-015 -2.359915760564886E-015 -2.601857691172629E-015
-2.868603853000676E-015 -3.162697211182660E-015 -3.486941439246010E-015 -3.844427647321431E-015
-4.238563850542284E-015 -4.673107458607576E-015 -5.152201096196791E-015 -5.680412095765538E-015
-6.262776039188367E-015 -6.904844763352609E-015 -7.612739287353169E-015 -8.393208165867558E-015
-9.253691824986421E-015 -1.020239349386029E-014 -1.124835740834032E-014 -1.240155503218980E-014
-1.367298011779733E-014 -1.507475351265668E-014 -1.662023871075263E-014 -1.832416925043896E-014
-2.020278917333054E-014 -2.227400788323829E-014 -2.455757088143964E-014 -2.707524800600613E-014
-2.985104096967751E-014 -3.291141217476636E-014 -3.628553698658547E-014 -4.000558187019794E-014
-4.410701104220837E-014 -4.862892456088221E-014 -5.361443107778161E-014 -5.911105880437840E-014
-6.517120861153480E-014 -7.185265358145091E-014 -7.921908977427259E-014 -8.734074346015604E-014
-9.629504060548967E-014 -1.061673449959369E-013 -1.170517720327230E-013 -1.290520859605612E-013
-1.422826890804886E-013 -1.568697123784229E-013 -1.729522179662045E-013 -1.906835247985134E-013
-2.102326703046443E-013 -2.317860218679371E-013 -2.555490535171255E-013 -2.817483047657441E-013
-3.106335402751842E-013 -3.424801309286993E-013 -3.775916790169536E-013 -4.163029125603824E-013
-4.589828763621988E-013 -5.060384502121212E-013 -5.579182277808618E-013 -6.151167931845710E-013
-6.781794359878510E-013 -7.477073495955230E-013 -8.243633625906259E-013 -9.088782576561296E-013
-1.002057738320843E-012 -1.104790109946992E-012 -1.218054748179737E-012 -1.342931435595740E-012
-1.480610655554948E-012 -1.632404941394610E-012 -1.799761389152297E-012 -1.984275453113985E-012
-2.187706155696240E-012 -2.411992856665936E-012 -2.659273741560823E-012 -2.931906205567484E-012
-3.232489327176702E-012 -3.563888645866785E-012 -3.929263480027774E-012 -4.332097045547933E-012
-4.776229662195784E-012 -5.265895364356988E-012 -5.805762265155980E-012 -6.400977058737838E-012
-7.057214084991333E-012 -7.780729424430861E-012 -8.578420538955236E-012 -9.457892027027942E-012
-1.042752812017544E-011 -1.149657261186835E-011 -1.267521698083018E-011 -1.397469754881172E-011
-1.540740259909439E-011 -1.698699047687837E-011 -1.872851979744251E-011 -2.064859300335442E-011
-2.276551463933418E-011 -2.509946585353346E-011 -2.767269678890020E-011 -3.050973869863241E-011
-3.363763780789183E-011 -3.708621315119082E-011 -4.088834084345677E-011 -4.508026749478062E-011
-4.970195575667912E-011 -5.479746529389059E-011 -6.041537281375886E-011 -6.660923515710085E-011
-7.343809986554327E-011 -8.096706809238078E-011 -8.926791522321590E-011 -9.841977512305019E-011
-1.085098945324098E-010 -1.196344648044428E-010 -1.318995389117937E-010 -1.454220424652815E-010
-1.603308883822317E-010 -1.767682058304872E-010 -1.948906951637304E-010 -2.148711217647441E-010
-2.368999630370037E-010 -2.611872242452978E-010 -2.879644405156895E-010 -3.174868840796566E-010
-3.500359978032181E-010 -3.859220782005197E-010 -4.254872335071499E-010 -4.691086450129095E-010
-5.172021627431690E-010 -5.702262697648227E-010 -6.286864529086919E-010 -6.931400215717354E-010
-7.642014205358624E-010 -8.425480874474316E-010 -9.289269107958201E-010 -1.024161349949033E-009
-1.129159285122204E-009 -1.244921672105419E-009 -1.372552084251443E-009 -1.513267232682943E-009
-1.668408564999709E-009 -1.839455053049361E-009 -2.028037291655394E-009 -2.235953042696503E-009
-2.465184372704535E-009 -2.717916547337652E-009 -2.996558862829186E-009 -3.303767612981127E-009
-3.642471410613644E-009 -4.015899104839613E-009 -4.427610560251884E-009 -4.881530591412450E-009
-5.381986376080826E-009 -5.933748703797540E-009 -6.542077452967235E-009 -7.212771729902994E-009
-7.952225147729287E-009 -8.767486771979763E-009 -9.666328313800909E-009 -1.065731821114573E-008
-1.174990330401515E-008 -1.295449888217516E-008 -1.428258796350795E-008 -1.574683074922387E-008
-1.736118529901309E-008 -1.914104057616240E-008 -2.110336313062776E-008 -2.326685881782076E-008
-2.565215109425211E-008 -2.828197758911441E-008 -3.118140682487817E-008 -3.437807715210773E-008
-3.790246017521377E-008 -4.178815117918982E-008 -4.607218932457316E-008 -5.079541066158527E-008
-5.600283732663134E-008 -6.174410662953932E-008 -6.807394411928167E-008 -7.505268513508996E-008
-8.274684981164091E-008 -9.122977701582753E-008 -1.005823232539675E-007 -1.108936332068968E-007
-1.222619892322469E-007 -1.347957479253759E-007 -1.486143726587897E-007 -1.638495719338896E-007
-1.806465543857871E-007 -1.991654123924687E-007 -2.195826474634920E-007 -2.420928519323231E-007
-2.669105629642307E-007 -2.942723065306805E-007 -3.244388508085779E-007 -3.576976904551048E-007
-3.943657854046665E-007 -4.347925802548225E-007 -4.793633329768576E-007 -5.285027846272644E-007
-5.826792049783528E-007 -6.424088525586033E-007 -7.082608915350784E-007 -7.808628122050817E-007
-8.609064066565823E-007 -9.491543564243675E-007 -1.046447494784585E-006 -1.153712812733848E-006
-1.271972284764401E-006 -1.402352598319029E-006 -1.546095879394383E-006 -1.704571516206103E-006
-1.879289193243469E-006 -2.071913259522855E-006 -2.284278567490027E-006 -2.518407932966916E-006
-2.776531381882434E-006 -3.061107366467904E-006 -3.374846152214884E-006 -3.720735597470362E-006
-4.102069570145744E-006 -4.522479270977234E-006 -4.985967760225568E-006 -5.496948014999449E-006
-6.060284877675192E-006 -6.681341292669160E-006 -7.366029269220638E-006 -8.120866052423836E-006
-8.953036033803463E-006 -9.870458986790387E-006 -1.088186527190861E-005 -1.199687872211621E-005
-1.322610799075602E-005 -1.458124722416274E-005 -1.607518700827185E-005 -1.772213663501942E-005
-1.953775884008048E-005 -2.153931828031068E-005 -2.374584514747329E-005 -2.617831545606875E-005
-2.885984969850680E-005 -3.181593173168100E-005 -3.507464994709312E-005 -3.866696298338684E-005
-4.262699246742045E-005 -4.699234552002270E-005 -5.180447003724839E-005 -5.710904605987682E-005
-6.295641687551538E-005 -6.940206386217816E-005 -7.650712948236834E-005 -8.433899327579471E-005
-9.297190618158417E-005 -1.024876890493070E-004 -1.129765017793081E-004 -1.245376901686231E-004
-1.372807182366092E-004 -1.513261945688030E-004 -1.668070020538861E-004 -1.838695413056735E-004
-2.026750990630383E-004 -2.234013539569839E-004 -2.462440332312118E-004 -2.714187353084441E-004
-2.991629345224322E-004 -3.297381858868104E-004 -3.634325494674836E-004 -4.005632557636156E-004
-4.414796355045067E-004 -4.865663394387807E-004 -5.362468760468145E-004 -5.909874976501471E-004
-6.513014681437346E-004 -7.177537485364442E-004 -7.909661396761420E-004 -8.716229249532487E-004
-9.604770594340653E-004 -1.058356955778659E-003 -1.166173921439790E-003 -1.284930306025557E-003
-1.415728422322323E-003 -1.559780309299550E-003 -1.718418410440617E-003 -1.893107245903767E-003
-2.085456162288255E-003 -2.297233249084353E-003 -2.530380516115322E-003 -2.787030431365005E-003
-3.069523923321619E-003 -3.380429956222760E-003 -3.722566790102016E-003 -4.099025040018628E-003
-4.513192650006929E-003 -4.968781896586965E-003 -5.469858533697211E-003 -6.020873185004342E-003
-6.626695079868136E-003 -7.292648215017682E-003 -8.024550004027685E-003 -8.828752449742896E-003
-9.712185839316068E-003 -1.068240491573019E-002 -1.174763742146255E-002 -1.291683483673766E-002
-1.419972504394242E-002 -1.560686653770986E-002 -1.714970366326366E-002 -1.884062219943517E-002
-2.069300440250018E-002 -2.272128238695100E-002 -2.494098843381574E-002 -2.736880047905360E-002
-3.002258063698827E-002 -3.292140414937284E-002 -3.608557561125710E-002 -3.953662870342162E-002
-4.329730495021802E-002 -4.739150621596656E-002 -5.184421474811866E-002 -5.668137357174913E-002
-6.192971893986424E-002 -6.761655536040538E-002 -7.376946247076861E-002 -8.041592174738768E-002
-8.758284976743333E-002 -9.529602354971003E-002 -1.035793824837867E-001 -1.124541906349356E-001
-1.219380429481980E-001 -1.320436992755850E-001 -1.427777314742084E-001 -1.541389713910053E-001
-1.661167517433572E-001 -1.786889381783524E-001 -1.918197596609750E-001 -2.054574563788856E-001
-2.195317801639927E-001 -2.339514026267351E-001 -2.486013113317660E-001 -2.633403048182327E-001
-2.779987332465721E-001 -2.923766726791111E-001 -3.062427666098868E-001 -3.193340166259567E-001
-3.313568521448990E-001 -3.419898526746478E-001 -3.508885288499721E-001 -3.576925823192859E-001
-3.620360488341038E-001 -3.635606706392576E-001 -3.619327284823077E-001 -3.568633738324377E-001
-3.481322218294037E-001 -3.356135807769745E-001 -3.193041956052800E-001 -2.993507709733439E-001
-2.760748294628542E-001 -2.499916871481598E-001 -2.218195554718376E-001 -1.924741016088427E-001
-1.630433570665019E-001 -1.347378424994802E-001 -1.088114222118685E-001 -8.645004395415004E-002
-6.862861836040440E-002 -5.594153623094329E-002 -4.842081490796078E-002 -4.536945483168221E-002
-4.525938968841597E-002 -4.577856350621261E-002 -4.416824919581323E-002 -3.808168120579719E-002
-2.733481485278051E-002 -1.527692786006912E-002 -3.689651938223577E-003  6.569961678464450E-003
1.465622771366420E-002  1.984469163493552E-002  2.167669042265318E-002  2.012809808045853E-002
1.577127766888957E-002  9.863385259072231E-003  4.234575162287040E-003  7.539345582246219E-004
0.000000000000000E+000  0.000000000000000E+000  0.000000000000000E+000  0.000000000000000E+000
0.000000000000000E+000  0.000000000000000E+000  0.000000000000000E+000  0.000000000000000E+000
0.000000000000000E+000  0.000000000000000E+000  0.000000000000000E+000  0.000000000000000E+000
0.000000000000000E+000  0.000000000000000E+000  0.000000000000000E+000  0.000000000000000E+000
0.000000000000000E+000  0.000000000000000E+000  0.000000000000000E+000  0.000000000000000E+000
0.000000000000000E+000  0.000000000000000E+000  0.000000000000000E+000  0.000000000000000E+000
0.000000000000000E+000  0.000000000000000E+000  0.000000000000000E+000  0.000000000000000E+000
0.000000000000000E+000  0.000000000000000E+000  0.000000000000000E+000  0.000000000000000E+000
0.000000000000000E+000  0.000000000000000E+000  0.000000000000000E+000  0.000000000000000E+000
0.000000000000000E+000  0.000000000000000E+000  0.000000000000000E+000  0.000000000000000E+000
0.000000000000000E+000  0.000000000000000E+000  0.000000000000000E+000  0.000000000000000E+000
0.000000000000000E+000  0.000000000000000E+000  0.000000000000000E+000  0.000000000000000E+000
0.000000000000000E+000  0.000000000000000E+000  0.000000000000000E+000  0.000000000000000E+000
0.000000000000000E+000  0.000000000000000E+000  0.000000000000000E+000  0.000000000000000E+000
0.000000000000000E+000  0.000000000000000E+000  0.000000000000000E+000  0.000000000000000E+000
0.000000000000000E+000  0.000000000000000E+000  0.000000000000000E+000  0.000000000000000E+000
0.000000000000000E+000  0.000000000000000E+000  0.000000000000000E+000  0.000000000000000E+000
0.000000000000000E+000  0.000000000000000E+000  0.000000000000000E+000  0.000000000000000E+000
0.000000000000000E+000  0.000000000000000E+000  0.000000000000000E+000  0.000000000000000E+000
0.000000000000000E+000  0.000000000000000E+000  0.000000000000000E+000  0.000000000000000E+000
0.000000000000000E+000  0.000000000000000E+000  0.000000000000000E+000  0.000000000000000E+000
0.000000000000000E+000  0.000000000000000E+000  0.000000000000000E+000  0.000000000000000E+000
0.000000000000000E+000  0.000000000000000E+000  0.000000000000000E+000  0.000000000000000E+000
0.000000000000000E+000  0.000000000000000E+000  0.000000000000000E+000  0.000000000000000E+000
0.000000000000000E+000  0.000000000000000E+000  0.000000000000000E+000  0.000000000000000E+000
0.000000000000000E+000  0.000000000000000E+000  0.000000000000000E+000  0.000000000000000E+000
0.000000000000000E+000  0.000000000000000E+000  0.000000000000000E+000  0.000000000000000E+000
0.000000000000000E+000  0.000000000000000E+000  0.000000000000000E+000  0.000000000000000E+000
0.000000000000000E+000  0.000000000000000E+000  0.000000000000000E+000  0.000000000000000E+000
0.000000000000000E+000  0.000000000000000E+000  0.000000000000000E+000  0.000000000000000E+000
0.000000000000000E+000  0.000000000000000E+000  0.000000000000000E+000  0.000000000000000E+000
0.000000000000000E+000  0.000000000000000E+000  0.000000000000000E+000  0.000000000000000E+000
0.000000000000000E+000  0.000000000000000E+000  0.000000000000000E+000  0.000000000000000E+000
0.000000000000000E+000  0.000000000000000E+000  0.000000000000000E+000  0.000000000000000E+000
0.000000000000000E+000  0.000000000000000E+000  0.000000000000000E+000
</PP_BETA.3>
<PP_DIJ type="real" size="9" columns="4">
1.644085297790120E+001  0.000000000000000E+000  0.000000000000000E+000  0.000000000000000E+000
-7.217648413247524E-002  0.000000000000000E+000  0.000000000000000E+000  0.000000000000000E+000
-3.366798535742402E+001
</PP_DIJ>
</PP_NONLOCAL>
<PP_PSWFC>
<PP_CHI.1 type="real" size="527" columns="4" index="1" label="4s" l="0" occupation="2.000000000000000E+000" n="4"
pseudo_energy="0.000000000000000E+000" cutoff_radius="0.000000000000000E+000" ultrasoft_cutoff_radius="0.000000000000000E+000">
3.246216543745500E-005  3.326398092376000E-005  3.408560125257700E-005  3.492751560351500E-005
3.579022524878100E-005  3.667424382848000E-005  3.758009767268700E-005  3.850832611305800E-005
3.945948180258100E-005  4.043413104480600E-005  4.143285413101700E-005  4.245624568573600E-005
4.350491502075100E-005  4.457948649789900E-005  4.568059990080400E-005  4.680891081580000E-005
4.796509102226100E-005  4.914982889257400E-005  5.036382980199200E-005  5.160781654860700E-005
5.288252978370200E-005  5.418872845273200E-005  5.552719024719300E-005  5.689871206765800E-005
5.830411049824900E-005  5.974422229282600E-005  6.121990487319200E-005  6.273203683959500E-005
6.428151849385200E-005  6.586927237538301E-005  6.749624381049300E-005  6.916340147522000E-005
7.087173797208900E-005  7.262227042110600E-005  7.441604106535800E-005  7.625411789157001E-005
7.813759526598600E-005  8.006759458597000E-005  8.204526494768799E-005  8.407178383029200E-005
8.614835779700700E-005  8.827622321352901E-005  9.045664698417400E-005  9.269092730621300E-005
9.498039444284099E-005  9.732641151523301E-005  9.973037531418000E-005  1.021937171317700E-004
1.047179036135900E-004  1.073044376320400E-004  1.099548591811600E-004  1.126707462936000E-004
1.154537159801900E-004  1.183054251928400E-004  1.212275718110800E-004  1.242218956530700E-004
1.272901795115700E-004  1.304342502154800E-004  1.336559797176300E-004  1.369572862094100E-004
1.403401352630200E-004  1.438065410018200E-004  1.473585672997200E-004  1.509983290101000E-004
1.547279932251800E-004  1.585497805664300E-004  1.624659665069300E-004  1.664788827263500E-004
1.705909184994500E-004  1.748045221189000E-004  1.791222023531900E-004  1.835465299406400E-004
1.880801391202800E-004  1.927257292006100E-004  1.974860661670900E-004  2.023639843293600E-004
2.073623880091700E-004  2.124842532700500E-004  2.177326296897300E-004  2.231106421762900E-004
2.286214928293500E-004  2.342684628470900E-004  2.400549144805500E-004  2.459842930361700E-004
2.520601289278600E-004  2.582860397797600E-004  2.646657325810700E-004  2.712030058940700E-004
2.779017521167500E-004  2.847659598014800E-004  2.917997160308400E-004  2.990072088524100E-004
3.063927297735800E-004  3.139606763182000E-004  3.217155546464400E-004  3.296619822393500E-004
3.378046906500100E-004  3.461485283225600E-004  3.546984634811200E-004  3.634595870900900E-004
3.724371158877800E-004  3.816363954950500E-004  3.910629036009500E-004  4.007222532271500E-004
4.106201960732700E-004  4.207626259449100E-004  4.311555822666900E-004  4.418052536822100E-004
4.527179817431900E-004  4.639002646899900E-004  4.753587613258000E-004  4.871002949868000E-004
4.991318576107600E-004  5.114606139064000E-004  5.240939056262100E-004  5.370392559451200E-004
5.503043739478000E-004  5.638971592272900E-004  5.778257065976900E-004  5.920983109237400E-004
6.067234720704300E-004  6.217098999753100E-004  6.370665198468900E-004  6.528024774921100E-004
6.689271447761900E-004  6.854501252181900E-004  7.023812597256800E-004  7.197306324719900E-004
7.375085769197900E-004  7.557256819944100E-004  7.743927984110000E-004  7.935210451592300E-004
8.131218161495200E-004  8.332067870249800E-004  8.537879221432700E-004  8.748774817325700E-004
8.964880292262599E-004  9.186324387807700E-004  9.413239029812600E-004  9.645759407400400E-004
9.884024053925500E-004  1.012817492996000E-003  1.037835750836100E-003  1.063472086146700E-003
1.089741775048500E-003  1.116660471712000E-003  1.144244217750700E-003  1.172509451850800E-003
1.201473019642700E-003  1.231152183822000E-003  1.261564634524800E-003  1.292728499965500E-003
1.324662357343800E-003  1.357385244026500E-003  1.390916669013400E-003  1.425276624694100E-003
1.460485598902200E-003  1.496564587277600E-003  1.533535105942000E-003  1.571419204498900E-003
1.610239479364700E-003  1.650019087441300E-003  1.690781760138700E-003  1.732551817758200E-003
1.775354184244400E-003  1.819214402318400E-003  1.864158649000900E-003  1.910213751537600E-003
1.957407203736600E-003  2.005767182731900E-003  2.055322566181700E-003  2.106102949917900E-003
2.158138666056100E-003  2.211460801582500E-003  2.266101217429200E-003  2.322092568054200E-003
2.379468321539800E-003  2.438262780225600E-003  2.498511101891200E-003  2.560249321507000E-003
2.623514373568500E-003  2.688344115033500E-003  2.754777348880600E-003  2.822853848307700E-003
2.892614381592400E-003  2.964100737633600E-003  3.037355752198000E-003  3.112423334892700E-003
3.189348496890500E-003  3.268177379429100E-003  3.348957283114200E-003  3.431736698051100E-003
3.516565334834700E-003  3.603494156426900E-003  3.692575410953300E-003  3.783862665451900E-003
3.877410840607000E-003  3.973276246506100E-003  4.071516619455700E-003  4.172191159897300E-003
4.275360571463500E-003  4.381087101219200E-003  4.489434581133700E-003  4.600468470831900E-003
4.714255901675400E-003  4.830865722227800E-003  4.950368545160700E-003  5.072836795659600E-003
5.198344761394000E-003  5.326968644117100E-003  5.458786612966200E-003  5.593878859539000E-003
5.732327654822500E-003  5.874217408060700E-003  6.019634727647400E-003  6.168668484138600E-003
6.321409875483900E-003  6.477952494582300E-003  6.638392399274000E-003  6.802828184887500E-003
6.971361059467400E-003  7.144094921818700E-003  7.321136442508700E-003  7.502595147979300E-003
7.688583507931800E-003  7.879217026155700E-003  8.074614334985301E-003  8.274897293580399E-003
8.480191090239699E-003  8.690624348968400E-003  8.906329240539799E-003  9.127441598303501E-003
9.354101039010800E-003  9.586451088949399E-003  9.824639315694401E-003  1.006881746581000E-002
1.031914160885100E-002  1.057577228805600E-002  1.083887467811500E-002  1.110861875047700E-002
1.138517944664000E-002  1.166873685992600E-002  1.195947642629100E-002  1.225758912472600E-002
1.256327168787800E-002  1.287672682354000E-002  1.319816344773100E-002  1.352779693012200E-002
1.386584935261900E-002  1.421254978199400E-002  1.456813455749800E-002  1.493284759447300E-002
1.530694070505600E-002  1.569067393714700E-002  1.608431593288900E-002  1.648814430805000E-002
1.690244605372500E-002  1.732751796196600E-002  1.776366707701800E-002  1.821121117397600E-002
1.867047926685200E-002  1.914181214814300E-002  1.962556296220600E-002  2.012209781487400E-002
2.063179642199700E-002  2.115505279974600E-002  2.169227599977800E-002  2.224389089259600E-002
2.281033900270100E-002  2.339207939941700E-002  2.398958964759000E-002  2.460336682268800E-002
2.523392859520200E-002  2.588181438963800E-002  2.654758662382000E-002  2.723183203468300E-002
2.793516309725600E-002  2.865821954404900E-002  2.940166999267800E-002  3.016621369019000E-002
3.095258238324300E-002  3.176154232404200E-002  3.259389642278000E-002  3.345048655815700E-002
3.433219605857200E-002  3.523995236756700E-002  3.617472990824800E-002  3.713755316262000E-002
3.812949998305900E-002  3.915170515459800E-002  4.020536422818500E-002  4.129173764675200E-002
4.241215518768400E-002  4.356802074718300E-002  4.476081749406100E-002  4.599211342269900E-002
4.726356733719700E-002  4.857693530128400E-002  4.993407759113200E-002  5.133696619105200E-002
5.278769287493500E-002  5.428847791940200E-002  5.584167949775900E-002  5.744980380714900E-002
5.911551598460000E-002  6.084165187097500E-002  6.263123068512499E-002  6.448746867364399E-002
6.641379380449200E-002  6.841386157526100E-002  7.049157200874200E-002  7.265108790958900E-002
7.489685445596000E-002  7.723362019863400E-002  7.966645953696901E-002  8.220079673551101E-002
8.484243153654200E-002  8.759756641156900E-002  9.047283547769100E-002  9.347533508191000E-002
9.661265602623501E-002  9.989291736737700E-002  1.033248016747800E-001  1.069175915675700E-001
1.106812072716000E-001  1.146262448395500E-001  1.187640145550800E-001  1.231065788937600E-001
1.276667892320700E-001  1.324583202770700E-001  1.374957009272000E-001  1.427943399613600E-001
1.483705445843600E-001  1.542415294226100E-001  1.604254130612600E-001  1.669411986345200E-001
1.738087343252900E-001  1.810486488954600E-001  1.886822565630600E-001  1.967314246785800E-001
2.052183967549100E-001  2.141655625114800E-001  2.235951657613200E-001  2.335289402796900E-001
2.439876633566200E-001  2.549906166985500E-001  2.665549448931100E-001  2.786949030169600E-001
2.914209874235600E-001  3.047389476095600E-001  3.186486826612000E-001  3.331430334597000E-001
3.482064918632800E-001  3.638138606587900E-001  3.799289131631300E-001  3.965031186204600E-001
4.134745182071100E-001  4.307668551672300E-001  4.482890792973400E-001  4.659353578384500E-001
4.835857282243300E-001  5.011075188884200E-001  5.183576380566300E-001  5.351857831684400E-001
5.514385525872800E-001  5.669643462773600E-001  5.816188263864800E-001  5.952705800802200E-001
6.078064988832100E-001  6.191362804581300E-001  6.291953955421000E-001  6.379458765545900E-001
6.453744154302300E-001  6.514875597662400E-001  6.563043438790600E-001  6.598475971185400E-001
6.621366035041000E-001  6.631853055292500E-001  6.630076004206000E-001  6.616221388697400E-001
6.590512134123300E-001  6.553206776300600E-001  6.504599909461500E-001  6.445020579463400E-001
6.374830934968500E-001  6.294424720351800E-001  6.204225650738100E-001  6.104685672393100E-001
5.996283110053801E-001  5.879520703889100E-001  5.754923539279000E-001  5.623036873097800E-001
5.484423860654400E-001  5.339663187923800E-001  5.189346614248400E-001  5.034076431325100E-001
4.874462845078400E-001  4.711121286313300E-001  4.544669668148600E-001  4.375725579715800E-001
4.204903450001500E-001  4.032811683137600E-001  3.860049782815900E-001  3.687205482911700E-001
3.514851903381800E-001  3.343544752446600E-001  3.173819597888400E-001  3.006189231908600E-001
2.841141155296900E-001  2.679135207585700E-001  2.520601370304800E-001  2.365937770347800E-001
2.215508909743900E-001  2.069644146758500E-001  1.928636451201300E-001  1.792741454095400E-001
1.662176808488500E-001  1.537121874210500E-001  1.417717734878100E-001  1.304067550517400E-001
1.196237243924900E-001  1.094256513467300E-001  9.981201595606599E-002  9.077897067301900E-002
8.231952980848301E-002  7.442378343907401E-002  6.707913258343200E-002  6.027054211461200E-002
5.398080761122400E-002  4.819083217014400E-002  4.287990911312600E-002  3.802600651989000E-002
3.360604961002500E-002  2.959619717093000E-002  2.597210848221800E-002  2.270919750923300E-002
1.978287151861700E-002  1.716875169459300E-002  1.484287379268300E-002  1.278186734401300E-002
1.096311240493000E-002  9.364873320262901E-003  7.966409422514600E-003  6.748063013061000E-003
5.691325356264900E-003  4.778881756289500E-003  3.994637074244900E-003  3.323723276952300E-003
2.752490786741200E-003  2.268485524740000E-003  1.860413610034400E-003  1.518095697174600E-003
1.232412909213700E-003  9.952462580658801E-004  7.994113437924301E-004  6.385899997616000E-004
5.072603864601300E-004  4.006269167743500E-004  3.145511352234600E-004  2.454845807250000E-004
1.904044587209900E-004  1.467527501749700E-004  1.123792417078500E-004  8.548881002926200E-005
6.459315381503400E-005  4.846704484901400E-005  3.610906570604600E-005  2.670671382923800E-005
1.960568133446400E-005  1.428306559248400E-005  1.032422649201700E-005  7.402981110879200E-006
5.264812835184000E-006  3.712772556392800E-006  2.595743498730300E-006  1.798788819251400E-006
1.235263879766300E-006  8.404350737033400E-007  5.663875435066100E-007  3.779946738985100E-007
2.497554042739700E-007  1.633403304503700E-007  1.057086771385900E-007  6.767886232403900E-008
4.285527597793400E-008  2.683150465535000E-008  1.660553329181900E-008  1.015551904844000E-008
6.135699803260400E-009  3.661057955961600E-009  2.156721319256900E-009  1.253970292644200E-009
7.193553365769200E-010  4.070203815921000E-010  2.270674591179500E-010  1.248548168500800E-010
6.764081870010400E-011  3.609132425661600E-011  1.895920310485000E-011  9.801420321250700E-012
4.984635201168600E-012  2.492710711995500E-012  1.225232835012700E-012  5.916681794135500E-013
2.805787902951800E-013  1.305778264611900E-013  5.960058221334100E-014  0.000000000000000E+000
0.000000000000000E+000  0.000000000000000E+000  0.000000000000000E+000  0.000000000000000E+000
0.000000000000000E+000  0.000000000000000E+000  0.000000000000000E+000  0.000000000000000E+000
0.000000000000000E+000  0.000000000000000E+000  0.000000000000000E+000  0.000000000000000E+000
0.000000000000000E+000  0.000000000000000E+000  0.000000000000000E+000  0.000000000000000E+000
0.000000000000000E+000  0.000000000000000E+000  0.000000000000000E+000
</PP_CHI.1>
<PP_CHI.2 type="real" size="527" columns="4" index="2" label="4p" l="1" occupation="0.000000000000000E+000" n="4"
pseudo_energy="0.000000000000000E+000" cutoff_radius="0.000000000000000E+000" ultrasoft_cutoff_radius="0.000000000000000E+000">
1.482262540181300E-008  1.556390623219400E-008  1.634225858361700E-008  1.715953640618700E-008
1.801768649216000E-008  1.891875274860400E-008  1.986488141615400E-008  2.085832607063000E-008
2.190145298916000E-008  2.299674678662000E-008  2.414681633372300E-008  2.535440097106000E-008
2.662237703391300E-008  2.795376470337700E-008  2.935173520009600E-008  3.081961833777300E-008
3.236091045441900E-008  3.397928274025500E-008  3.567858998208300E-008  3.746287974497700E-008
3.933640201313200E-008  4.130361931287800E-008  4.336921734192300E-008  4.553811613017800E-008
4.781548175874000E-008  5.020673866492800E-008  5.271758256270800E-008  5.535399400926500E-008
5.812225265004200E-008  6.102895217617100E-008  6.408101602993000E-008  6.728571389563600E-008
7.065067901523599E-008  7.418392636987001E-008  7.789387177067901E-008  8.178935190436000E-008
8.587964538119100E-008  9.017449483567700E-008  9.468413013244900E-008  9.941929273269300E-008
1.043912612791500E-007  1.096118784606000E-007  1.150935792198900E-007  1.208494203726300E-007
1.268931117070700E-007  1.332390486393600E-007  1.399023465018700E-007  1.468988765462800E-007
1.542453037471800E-007  1.619591264962300E-007  1.700587182814500E-007  1.785633714508700E-007
1.874933431648200E-007  1.968699036463100E-007  2.067153868443900E-007  2.170532436312200E-007
2.279080976594800E-007  2.393058040133200E-007  2.512735107923200E-007  2.638397237753700E-007
2.770343743183500E-007  2.908888906474000E-007  3.054362727175900E-007  3.207111708152500E-007
3.367499680912000E-007  3.535908672215500E-007  3.712739814023600E-007  3.898414298949600E-007
4.093374383495000E-007  4.298084441457500E-007  4.513032070019300E-007  4.738729251151600E-007
4.975713571100900E-007  5.224549500862000E-007  5.485829740687700E-007  5.760176631837500E-007
6.048243638928500E-007  6.350716906418300E-007  6.668316892928400E-007  7.001800087299800E-007
7.351960810470000E-007  7.719633107460400E-007  8.105692733984200E-007  8.511059242403700E-007
8.936698172006900E-007  9.383623348821100E-007  9.852899300439299E-007  1.034564379161400E-006
1.086303048665400E-006  1.140629174497500E-006  1.197672155644300E-006  1.257567862353300E-006
1.320458959761000E-006  1.386495247706900E-006  1.455834017540900E-006  1.528640426775500E-006
1.605087892473800E-006  1.685358504311000E-006  1.769643458294000E-006  1.858143512170100E-006
1.951069463612100E-006  2.048642652316900E-006  2.151095487214600E-006  2.258672000042600E-006
2.371628426605700E-006  2.490233817103800E-006  2.614770676983000E-006  2.745535639835800E-006
2.882840173953100E-006  3.027011324211800E-006  3.178392491063500E-006  3.337344248481600E-006
3.504245202814100E-006  3.679492894588000E-006  3.863504745413400E-006  4.056719052242600E-006
4.259596031352800E-006  4.472618914539300E-006  4.696295100129500E-006  4.931157361559700E-006
5.177765116394300E-006  5.436705758808800E-006  5.708596058711600E-006  5.994083630836900E-006
6.293848477307500E-006  6.608604607343600E-006  6.939101737973000E-006  7.286127079796800E-006
7.650507212061700E-006  8.033110051507299E-006  8.434846919676600E-006  8.856674713615900E-006
9.299598185132099E-006  9.764672334040401E-006  1.025300492109900E-005  1.076575910662100E-005
1.130415622104200E-005  1.186947867405800E-005  1.246307300923800E-005  1.308635311141600E-005
1.374080357448300E-005  1.442798323760900E-005  1.514952889831700E-005  1.590715921125600E-005
1.670267878195800E-005  1.753798246532800E-005  1.841505987912100E-005  1.933600014313300E-005
2.030299685542200E-005  2.131835331739500E-005  2.238448802021600E-005  2.350394040560400E-005
2.467937691474400E-005  2.591359733971800E-005  2.720954149259800E-005  2.857029620807100E-005
2.999910269629600E-005  3.149936426349700E-005  3.307465441869600E-005  3.472872538589100E-005
3.646551704196000E-005  3.828916630159100E-005  4.020401697159000E-005  4.221463009804900E-005
4.432579483102500E-005  4.654253983261600E-005  4.887014525561500E-005  5.131415532128600E-005
5.388039152621700E-005  5.657496650974300E-005  5.940429861495500E-005  6.237512717800600E-005
6.549452858214800E-005  6.876993311473901E-005  7.220914266741200E-005  7.582034932156000E-005
7.961215486344800E-005  8.359359127544799E-005  8.777414225223400E-005  9.216376579320599E-005
9.677291792500700E-005  1.016125776106500E-004  1.066942729046300E-004  1.120301084164000E-004
1.176327941475600E-004  1.235156757716900E-004  1.296927664287800E-004  1.361787801102200E-004
1.429891667138900E-004  1.501401488528900E-004  1.576487605056800E-004  1.655328875998200E-004
1.738113106260700E-004  1.825037493843600E-004  1.916309099685500E-004  2.012145341017600E-004
2.112774509401600E-004  2.218436314687000E-004  2.329382456184000E-004  2.445877222416800E-004
2.568198120886400E-004  2.696636539345600E-004  2.831498440164800E-004  2.973105089444300E-004
3.121793822614000E-004  3.277918848347000E-004  3.441852092707000E-004  3.613984085542700E-004
3.794724891247000E-004  3.984505086103000E-004  4.183776784549900E-004  4.393014716820200E-004
4.612717360522200E-004  4.843408128871200E-004  5.085636618407700E-004  5.339979919184400E-004
5.607043990554000E-004  5.887465105844800E-004  6.181911369379900E-004  6.491084309465900E-004
6.815720551162100E-004  7.156593572831400E-004  7.514515550675700E-004  7.890339295670001E-004
8.284960287532900E-004  8.699318810601500E-004  9.134402196729200E-004  9.591247180576000E-004
1.007094237293900E-003  1.057463085804900E-003  1.110351292106200E-003  1.165884891229100E-003
1.224196225504400E-003  1.285424260429100E-003  1.349714916375300E-003  1.417221416936500E-003
1.488104654749800E-003  1.562533575673100E-003  1.640685582241300E-003  1.722746957372600E-003
1.808913309344800E-003  1.899390039114000E-003  1.994392831102300E-003  2.094148168637000E-003
2.198893875287200E-003  2.308879683402600E-003  2.424367831231200E-003  2.545633690057000E-003
2.672966422878000E-003  2.806669676217300E-003  2.947062306746500E-003  3.094479144482200E-003
3.249271794410000E-003  3.411809478483100E-003  3.582479920045200E-003  3.761690272830300E-003
3.949868096804000E-003  4.147462383229800E-003  4.354944631461400E-003  4.572809980099300E-003
4.801578395278700E-003  5.041795919005800E-003  5.294035980606400E-003  5.558900774514400E-003
5.837022707791600E-003  6.129065920952000E-003  6.435727885847100E-003  6.757741084567900E-003
7.095874773526300E-003  7.450936837097000E-003  7.823775735433400E-003  8.215282551313799E-003
8.626393141131601E-003  9.058090395412499E-003  9.511406614532101E-003  9.987426005604001E-003
1.048728730682900E-002  1.101218654593500E-002  1.156337993968300E-002  1.214218694180000E-002
1.274999344708300E-002  1.338825515984200E-002  1.405850113528200E-002  1.476233750289100E-002
1.550145138138400E-002  1.627761499527000E-002  1.709269000363900E-002  1.794863205235000E-002
1.884749556137300E-002  1.979143875968200E-002  2.078272898075100E-002  2.182374823236800E-002
2.291699905522900E-002  2.406511068549200E-002  2.527084553725200E-002  2.653710602171700E-002
2.786694172064900E-002  2.926355693252400E-002  3.073031861068800E-002  3.227076471368700E-002
3.388861298878600E-002  3.558777021058800E-002  3.737234189745300E-002  3.924664252925000E-002
4.121520629067300E-002  4.328279836497900E-002  4.545442680352500E-002  4.773535499679200E-002
5.013111477269900E-002  5.264752014781800E-002  5.529068175655800E-002  5.806702198237400E-002
6.098329081345600E-002  6.404658244308900E-002  6.726435263164400E-002  7.064443684295500E-002
7.419506916223099E-002  7.792490199549200E-002  8.184302654140201E-002  8.595899401492400E-002
9.028283758797200E-002  9.482509499457800E-002  9.959683172646699E-002  1.046096647184700E-001
1.098757863910400E-001  1.154079888783900E-001  1.212196882238400E-001  1.273249482680300E-001
1.337385038887200E-001  1.404757831714000E-001  1.475529279957800E-001  1.549868124124400E-001
1.627950580539400E-001  1.709960456728100E-001  1.796089217229900E-001  1.886535986977800E-001
1.981507477046600E-001  2.081217814918000E-001  2.185888258422000E-001  2.295746769165700E-001
2.411027417567700E-001  2.531969587588600E-001  2.658816944939800E-001  2.791816128037200E-001
2.931215116373000E-001  3.077261226503400E-001  3.230198681737100E-001  3.390265698246300E-001
3.557691028154700E-001  3.732689899825600E-001  3.915459297826100E-001  4.106172530844800E-001
4.304973046301600E-001  4.511967466832500E-001  4.727217847704200E-001  4.950733187070500E-001
5.182460264361500E-001  5.422273937360300E-001  5.669967096617200E-001  5.925240556997000E-001
6.187693259392200E-001  6.456813258333900E-001  6.731970078483300E-001  7.012409126957100E-001
7.297248937801900E-001  7.585482084421999E-001  7.875980606095200E-001  8.167506733022600E-001
8.458729535506700E-001  8.748247841715100E-001  9.034619343658300E-001  9.316395229979600E-001
9.592158950165600E-001  9.860566855564200E-001  1.012038754117400E+000  1.037053584086900E+000
1.061009678817700E+000  1.083833472193100E+000  1.105468350827200E+000  1.125871619410300E+000
1.145009724455600E+000  1.162852926192500E+000  1.179371793942000E+000  0.000000000000000E+000
0.000000000000000E+000  0.000000000000000E+000  0.000000000000000E+000  0.000000000000000E+000
0.000000000000000E+000  0.000000000000000E+000  0.000000000000000E+000  0.000000000000000E+000
0.000000000000000E+000  0.000000000000000E+000  0.000000000000000E+000  0.000000000000000E+000
0.000000000000000E+000  0.000000000000000E+000  0.000000000000000E+000  0.000000000000000E+000
0.000000000000000E+000  0.000000000000000E+000  0.000000000000000E+000  0.000000000000000E+000
0.000000000000000E+000  0.000000000000000E+000  0.000000000000000E+000  0.000000000000000E+000
0.000000000000000E+000  0.000000000000000E+000  0.000000000000000E+000  0.000000000000000E+000
0.000000000000000E+000  0.000000000000000E+000  0.000000000000000E+000  0.000000000000000E+000
0.000000000000000E+000  0.000000000000000E+000  0.000000000000000E+000  0.000000000000000E+000
0.000000000000000E+000  0.000000000000000E+000  0.000000000000000E+000  0.000000000000000E+000
0.000000000000000E+000  0.000000000000000E+000  0.000000000000000E+000  0.000000000000000E+000
0.000000000000000E+000  0.000000000000000E+000  0.000000000000000E+000  0.000000000000000E+000
0.000000000000000E+000  0.000000000000000E+000  0.000000000000000E+000  0.000000000000000E+000
0.000000000000000E+000  0.000000000000000E+000  0.000000000000000E+000  0.000000000000000E+000
0.000000000000000E+000  0.000000000000000E+000  0.000000000000000E+000  0.000000000000000E+000
0.000000000000000E+000  0.000000000000000E+000  0.000000000000000E+000  0.000000000000000E+000
0.000000000000000E+000  0.000000000000000E+000  0.000000000000000E+000  0.000000000000000E+000
0.000000000000000E+000  0.000000000000000E+000  0.000000000000000E+000  0.000000000000000E+000
0.000000000000000E+000  0.000000000000000E+000  0.000000000000000E+000  0.000000000000000E+000
0.000000000000000E+000  0.000000000000000E+000  0.000000000000000E+000  0.000000000000000E+000
0.000000000000000E+000  0.000000000000000E+000  0.000000000000000E+000  0.000000000000000E+000
0.000000000000000E+000  0.000000000000000E+000  0.000000000000000E+000  0.000000000000000E+000
0.000000000000000E+000  0.000000000000000E+000  0.000000000000000E+000  0.000000000000000E+000
0.000000000000000E+000  0.000000000000000E+000  0.000000000000000E+000  0.000000000000000E+000
0.000000000000000E+000  0.000000000000000E+000  0.000000000000000E+000  0.000000000000000E+000
0.000000000000000E+000  0.000000000000000E+000  0.000000000000000E+000  0.000000000000000E+000
0.000000000000000E+000  0.000000000000000E+000  0.000000000000000E+000  0.000000000000000E+000
0.000000000000000E+000  0.000000000000000E+000  0.000000000000000E+000  0.000000000000000E+000
0.000000000000000E+000  0.000000000000000E+000  0.000000000000000E+000  0.000000000000000E+000
0.000000000000000E+000  0.000000000000000E+000  0.000000000000000E+000  0.000000000000000E+000
0.000000000000000E+000  0.000000000000000E+000  0.000000000000000E+000  0.000000000000000E+000
0.000000000000000E+000  0.000000000000000E+000  0.000000000000000E+000  0.000000000000000E+000
0.000000000000000E+000  0.000000000000000E+000  0.000000000000000E+000  0.000000000000000E+000
0.000000000000000E+000  0.000000000000000E+000  0.000000000000000E+000  0.000000000000000E+000
0.000000000000000E+000  0.000000000000000E+000  0.000000000000000E+000  0.000000000000000E+000
0.000000000000000E+000  0.000000000000000E+000  0.000000000000000E+000
</PP_CHI.2>
<PP_CHI.3 type="real" size="527" columns="4" index="3" label="3d" l="2" occupation="1.000000000000000E+001" n="3"
pseudo_energy="0.000000000000000E+000" cutoff_radius="0.000000000000000E+000" ultrasoft_cutoff_radius="0.000000000000000E+000">
8.196959504674700E-011  8.819480374854400E-011  9.489278803693300E-011  1.020994530142100E-010
1.098534362748200E-010  1.181962988087700E-010  1.271727632148500E-010  1.368309486399100E-010
1.472226286450600E-010  1.584035087533800E-010  1.704335250640500E-010  1.833771655448900E-010
1.973038157256300E-010  2.122881306448100E-010  2.284104350444400E-010  2.457571539574500E-010
2.644212759962900E-010  2.845028518260900E-010  3.061095304944900E-010  3.293571364931600E-010
3.543702906445100E-010  3.812830781416200E-010  4.102397673227900E-010  4.413955830335000E-010
4.749175387215300E-010  5.109853317257700E-010  5.497923065578600E-010  5.915464913405100E-010
6.364717129582500E-010  6.848087968985900E-010  7.368168582152900E-010  7.927746905339700E-010
8.529822605460400E-010  9.177623160021700E-010  9.874621158249400E-010  1.062455291615200E-009
1.143143850530400E-009  1.229960330272300E-009  1.323370117734600E-009  1.423873943740900E-009
1.532010567245300E-009  1.648359663384900E-009  1.773544930864900E-009  1.908237435335000E-009
2.053159206676900E-009  2.209087109489100E-009  2.376857007513500E-009  2.557368244331000E-009
2.751588464340800E-009  2.960558799869200E-009  3.185399452212600E-009  3.427315696530700E-009
3.687604342779700E-009  3.967660687320100E-009  4.268985992461300E-009  4.593195534037000E-009
4.942027260151500E-009  5.317351107509900E-009  5.721179025272500E-009  6.155675760165300E-009
6.623170460660200E-009  7.126169162426100E-009  7.667368221980100E-009  8.249668770546600E-009
8.876192265604299E-009  9.550297223481100E-009  1.027559722269100E-008  1.105598027451700E-008
1.189562966467100E-008  1.279904637775500E-008  1.377107322471400E-008  1.481692080262100E-008
1.594219542594600E-008  1.715292917901700E-008  1.845561225077700E-008  1.985722772514300E-008
2.136528901346800E-008  2.298788012973000E-008  2.473369902435200E-008  2.661210420891400E-008
2.863316492167600E-008  3.080771510280500E-008  3.314741146862000E-008  3.566479599613000E-008
3.837336315278900E-008  4.128763223182000E-008  4.442322518081800E-008  4.779695034080200E-008
5.142689254452600E-008  5.533251005699100E-008  5.953473887773200E-008  6.405610496391000E-008
6.892084497571700E-008  7.415503619124499E-008  7.978673628712100E-008  8.584613373408300E-008
9.236570961355800E-008  9.938041172249299E-008  1.069278418995700E-007  1.150484575767300E-007
1.237857886362600E-007  1.331866707355800E-007  1.433014963501600E-007  1.541844848800800E-007
1.658939732676200E-007  1.784927286833500E-007  1.920482849564000E-007  2.066333045518500E-007
2.223259680349200E-007  2.392103931089300E-007  2.573770854727200E-007  2.769234239131300E-007
2.979541822321200E-007  3.205820908050400E-007  3.449284407789900E-007  3.711237341486200E-007
3.993083831923400E-007  4.296334630165800E-007  4.622615212396800E-007  4.973674491535300E-007
5.351394190299600E-007  5.757798925932100E-007  6.195067060609400E-007  6.665542375660600E-007
7.171746632130000E-007  7.716393084962600E-007  8.302401023198400E-007  8.932911414054100E-007
9.611303734676200E-007  1.034121408171200E-006  1.112655465567800E-006  1.197153472446900E-006
1.288068317825400E-006  1.385887279654400E-006  1.491134635734300E-006  1.604374472818200E-006
1.726213708940900E-006  1.857305345153900E-006  1.998351964070900E-006  2.150109493949500E-006
2.313391258456100E-006  2.489072333783600E-006  2.678094236440000E-006  2.881469966788900E-006
3.100289435325600E-006  3.335725300718300E-006  3.589039250840300E-006  3.861588760389400E-006
4.154834361231800E-006  4.470347464346600E-006  4.809818775193100E-006  5.175067347485700E-006
5.568050323771800E-006  5.990873414869200E-006  6.445802174159100E-006  6.935274126971800E-006
7.461911819854800E-006  8.028536859420001E-006  8.638185015732800E-006  9.294122470879100E-006
9.999863299439201E-006  1.075918827415500E-005  1.157616509712600E-005  1.245517016444700E-005
1.340091198035700E-005  1.441845634572600E-005  1.551325345513600E-005  1.669116704693300E-005
1.795850576153300E-005  1.932205687496400E-005  2.078912258721700E-005  2.236755905851000E-005
2.406581840112500E-005  2.589299385009000E-005  2.785886835281600E-005  2.997396683582900E-005
3.224961242617500E-005  3.469798692591000E-005  3.733219586053300E-005  4.016633844627800E-005
4.321558284708400E-005  4.649624711984400E-005  5.002588627642500E-005  5.382338592301900E-005
5.790906297186300E-005  6.230477395736000E-005  6.703403152840700E-005  7.212212973140200E-005
7.759627874422900E-005  8.348574977074501E-005  8.982203085807100E-005  9.663899445571600E-005
1.039730775963600E-004  1.118634756434700E-004  1.203523506208200E-004  1.294850552143500E-004
1.393103736171600E-004  1.498807804749500E-004  1.612527192819400E-004  1.734869016764600E-004
1.866486291921600E-004  2.008081391344300E-004  2.160409763743500E-004  2.324283929829500E-004
2.500577777690800E-004  2.690231179340700E-004  2.894254952169600E-004  3.113736190761900E-004
3.349843996370200E-004  3.603835633309600E-004  3.877063143633200E-004  4.170980453694200E-004
4.487151008600200E-004  4.827255973123400E-004  5.193103040363099E-004  5.586635892369900E-004
6.009944360049700E-004  6.465275332975500E-004  6.955044473259100E-004  7.481848791390900E-004
8.048480145943800E-004  8.657939733281700E-004  9.313453637919701E-004  1.001848951896200E-003
1.077677451311900E-003  1.159231444017200E-003  1.246941440243900E-003  1.341270087581500E-003
1.442714539628900E-003  1.551808995254300E-003  1.669127420229800E-003  1.795286463745200E-003
1.930948583087500E-003  2.076825390585300E-003  2.233681237771700E-003  2.402337052608600E-003
2.583674446543100E-003  2.778640109128400E-003  2.988250508937300E-003  3.213596920526100E-003
3.455850798261000E-003  3.716269518900900E-003  3.996202515932200E-003  4.297097829763700E-003
4.620509099011000E-003  4.968103019216000E-003  5.341667296450200E-003  5.743119124325700E-003
6.174514213971000E-003  6.638056407500600E-003  7.136107906397700E-003  7.671200147011200E-003
8.246045356019501E-003  8.863548819188900E-003  9.526821897029900E-003  1.023919582097600E-002
1.100423630342900E-002  1.182575899438500E-002  1.270784581628300E-002  1.365486220717000E-002
1.467147530014100E-002  1.576267306418400E-002  1.693378442796900E-002  1.819050040362900E-002
1.953889622202100E-002  2.098545448424600E-002  2.253708932610800E-002  2.420117158258000E-002
2.598555492794700E-002  2.789860295394500E-002  2.994921713263000E-002  3.214686559259100E-002
3.450161261620900E-002  3.702414874160700E-002  3.972582132535100E-002  4.261866539053100E-002
4.571543454905000E-002  4.902963174647200E-002  5.257553953203900E-002  5.636824950502800E-002
6.042369053101800E-002  6.475865525722800E-002  6.939082438451800E-002  7.433878807426500E-002
7.962206378072600E-002  8.526110970321200E-002  9.127733294704300E-002  9.769309136756300E-002
1.045316879472800E-001  1.118173564225100E-001  1.195752367330400E-001  1.278313387164800E-001
1.366124923098400E-001  1.459462823544200E-001  1.558609659297900E-001  1.663853699696200E-001
1.775487667402500E-001  1.893807245968200E-001  2.019109312754000E-001  2.151689868409100E-001
2.291841632968300E-001  2.439851277828400E-001  2.595996262532800E-001  2.760541245545700E-001
2.933734039197200E-001  3.115801080905600E-001  3.306942395829600E-001  3.507326030500900E-001
3.717081942979600E-001  3.936295342931900E-001  4.164999485032100E-001  4.403167931529100E-001
4.650706314982000E-001  4.907443650333800E-001  5.173123266892300E-001  5.447393455608700E-001
5.729797955380100E-001  6.019766433928300E-001  6.316605153926900E-001  6.619488053076700E-001
6.927448507082700E-001  7.239372086003700E-001  7.553990655855800E-001  7.869878216879500E-001
8.185448905275300E-001  8.498957613717900E-001  8.808503704347800E-001  9.112038292493800E-001
9.407375566050500E-001  9.692208569922000E-001  9.964129822969801E-001  1.022065704249500E+000
1.045926412518100E+000  1.067741737155100E+000  1.087261674297600E+000  1.104244170815700E+000
1.118460097456300E+000  1.129698511795900E+000  1.137772083180600E+000  1.142522523398400E+000
1.143825841040800E+000  1.141597216599700E+000  1.135795281721500E+000  1.126425582070100E+000
1.113543011075400E+000  1.097253023075100E+000  1.077711469804500E+000  1.055122953606600E+000
1.029737652600300E+000  1.001846644461300E+000  9.717758322291500E-001  9.398786523183000E-001
9.065278156395100E-001  8.721063912375200E-001  8.369986142878200E-001  8.015806532300001E-001
7.662119080899200E-001  7.312270197338000E-001  6.969289100420700E-001  6.635830541453800E-001
6.314131070041300E-001  6.005979240473300E-001  5.712699421562800E-001  5.435148330102700E-001
5.173723147264900E-001  4.928380166620100E-001  4.698663393058300E-001  4.483743335096900E-001
4.282467288027800E-001  4.093423435386700E-001  3.915021660549300E-001  3.745593397270000E-001
3.583510288724000E-001  3.427316100534200E-001  3.275855751559200E-001  3.128375831009600E-001
2.984569513433000E-001  2.844410562330400E-001  2.707950865934500E-001  2.575242757784600E-001
2.446329478871000E-001  2.321245515626600E-001  2.200016925750000E-001  2.082661651458000E-001
1.969189820341600E-001  1.859604034441700E-001  1.753899648479000E-001  1.652065038390900E-001
1.554081861441600E-001  1.459925309228300E-001  1.369564354902400E-001  1.282961995891300E-001
1.200075493353500E-001  1.120856609542200E-001  1.045251844195000E-001  9.732026710224401E-002
9.046457753249000E-002  8.395132937441900E-002  7.777330571276700E-002  7.192288374636201E-002
6.639205998190401E-002  6.117247601722700E-002  5.625544499749300E-002  5.163197881962500E-002
4.729281614894100E-002  4.322845129730000E-002  3.942916399358600E-002  3.588505005524200E-002
3.258605294374200E-002  2.952199615795200E-002  2.668261638770400E-002  2.405759731647500E-002
2.163660392772700E-002  1.940931713536300E-002  1.736546852604300E-002  1.549487497100100E-002
1.378747283879400E-002  1.223335151916000E-002  1.082278595296100E-002  9.546267854910600E-003
8.394535314990801E-003  7.358600471705200E-003  6.429774965541700E-003  5.599692904213200E-003
4.860331101851300E-003  4.204026391665800E-003  3.623489854647800E-003  3.111817854485200E-003
2.662499819618200E-003  2.269422765793500E-003  1.926872605057700E-003  1.629532338322500E-003
1.372477276992100E-003  1.151167483320900E-003  9.614376580197200E-004  7.994847362009200E-004
6.618534783554300E-004  5.454203612441700E-004  4.473760841974500E-004  3.652070094349100E-004
2.966758509772500E-004  2.398019160642400E-004  1.928411864467800E-004  1.542665053494000E-004
1.227481102681200E-004  9.713472309455100E-005  7.643537837187000E-005  5.980213879748500E-005
4.651381533486300E-005  3.596077834018700E-005  2.763091669293200E-005  2.109677466232100E-005
1.600387162742200E-005  1.206018814457700E-005  9.026783426328701E-006  6.709494190448300E-006
4.951652819419400E-006  3.627754440744300E-006  2.637995926838300E-006  1.903607409907200E-006
1.362895906140200E-006  9.679212023257300E-007  6.817293522564700E-007  4.760613756936100E-007
0.000000000000000E+000  0.000000000000000E+000  0.000000000000000E+000  0.000000000000000E+000
0.000000000000000E+000  0.000000000000000E+000  0.000000000000000E+000  0.000000000000000E+000
0.000000000000000E+000  0.000000000000000E+000  0.000000000000000E+000  0.000000000000000E+000
0.000000000000000E+000  0.000000000000000E+000  0.000000000000000E+000  0.000000000000000E+000
0.000000000000000E+000  0.000000000000000E+000  0.000000000000000E+000  0.000000000000000E+000
0.000000000000000E+000  0.000000000000000E+000  0.000000000000000E+000  0.000000000000000E+000
0.000000000000000E+000  0.000000000000000E+000  0.000000000000000E+000  0.000000000000000E+000
0.000000000000000E+000  0.000000000000000E+000  0.000000000000000E+000  0.000000000000000E+000
0.000000000000000E+000  0.000000000000000E+000  0.000000000000000E+000  0.000000000000000E+000
0.000000000000000E+000  0.000000000000000E+000  0.000000000000000E+000  0.000000000000000E+000
0.000000000000000E+000  0.000000000000000E+000  0.000000000000000E+000  0.000000000000000E+000
0.000000000000000E+000  0.000000000000000E+000  0.000000000000000E+000  0.000000000000000E+000
0.000000000000000E+000  0.000000000000000E+000  0.000000000000000E+000  0.000000000000000E+000
0.000000000000000E+000  0.000000000000000E+000  0.000000000000000E+000  0.000000000000000E+000
0.000000000000000E+000  0.000000000000000E+000  0.000000000000000E+000  0.000000000000000E+000
0.000000000000000E+000  0.000000000000000E+000  0.000000000000000E+000
</PP_CHI.3>
<PP_CHI.4 type="real" size="527" columns="4" index="4" label="4f" l="3" occupation="0.000000000000000E+000" n="4"
pseudo_energy="0.000000000000000E+000" cutoff_radius="0.000000000000000E+000" ultrasoft_cutoff_radius="0.000000000000000E+000">
1.519202520618700E-016  1.674952969519000E-016  1.846671139643700E-016  2.035994060759900E-016
2.244727073262200E-016  2.474859698410700E-016  2.728585846246000E-016  3.008324360010100E-016
3.316742064517700E-016  3.656779191274200E-016  4.031677408492700E-016  4.445010724825600E-016
4.900719561375900E-016  5.403148316823400E-016  5.957086783779100E-016  6.567815811204600E-016
7.241157648206200E-016  7.983531449146500E-016  8.802014469219300E-016  9.704409533880600E-016
1.069931942534100E-015  1.179622889526900E-015  1.300559508554900E-015  1.433894721910500E-015
1.580899651116900E-015  1.742975734881000E-015  1.921668089395100E-015  2.118680238356800E-015
2.335890353130400E-015  2.575369157872800E-015  2.839399670318400E-015  3.130498966416700E-015
3.451442176311400E-015  3.805288940420900E-015  4.195412577833700E-015  4.625532245088000E-015
5.099748391915300E-015  5.622581851956200E-015  6.199016941110600E-015  6.834548974392400E-015
7.535236654277401E-015  8.307759829978500E-015  9.159483178282000E-015  1.009852641303300E-014
1.113384169259200E-014  1.227529896321700E-014  1.353378005196500E-014  1.492128240612200E-014
1.645103346815700E-014  1.813761677654200E-014  1.999711099460700E-014  2.204724319282600E-014
2.430755784581300E-014  2.679960315512300E-014  2.954713647412000E-014  3.257635079328400E-014
3.591612444510600E-014  3.959829640906300E-014  4.365796984123500E-014  4.813384672219700E-014
5.306859681345200E-014  5.850926443979100E-014  6.450771697551900E-014  7.112113931008800E-014
7.841257900702000E-014  8.645154735323899E-014  9.531468202878400E-014  1.050864777143000E-013
1.158600916013500E-013  1.277382314847700E-013  1.408341349033100E-013  1.552726486631400E-013
1.711914190354500E-013  1.887422039746800E-013  2.080923198670200E-013  2.294262366014000E-013
2.529473361692300E-013  2.788798515579400E-013  3.074710044223600E-013  3.389933619128300E-013
3.737474351281400E-013  4.120645439651900E-013  4.543099756764300E-013  5.008864672464000E-013
5.522380447856800E-013  6.088542565441000E-013  6.712748398973100E-013  7.400948667982600E-013
8.159704167462100E-013  8.996248313550000E-013  9.918556101464901E-013  1.093542013308400E-012
1.205653443895100E-012  1.329258689380400E-012  1.465536110664300E-012  1.615784875666700E-012
1.781437344600800E-012  1.964072724997000E-012  2.165432126652500E-012  2.387435160029100E-012
2.632198236333200E-012  2.902054743737400E-012  3.199577292084300E-012  3.527602238137100E-012
3.889256725178100E-012  4.287988494727900E-012  4.727598754583900E-012  5.212278416514000E-012
5.746648049062100E-012  6.335801926341000E-012  6.985356592734200E-012  7.701504406476600E-012
8.491072572551200E-012  9.361588227665700E-012  1.032135019776700E-011  1.137950811216300E-011
1.254614962845000E-011  1.383239659975700E-011  1.525051110108100E-011  1.681401232545400E-011
1.853780546431200E-011  2.043832380067900E-011  2.253368536973900E-011  2.484386568022200E-011
2.739088814315500E-011  3.019903402330000E-011  3.329507391474300E-011  3.670852294724000E-011
4.047192215617500E-011  4.462114869837600E-011  4.919575787100800E-011  5.423936019394500E-011
5.980003715024001E-011  6.593079954784201E-011  7.269009287198000E-011  8.014235444555900E-011
8.835862770880400E-011  9.741723947380100E-011  1.074045466099400E-010  1.184157592780600E-010
1.305558485607500E-010  1.439405471407900E-010  1.586974525666100E-010  1.749672436214900E-010
1.929050213913300E-010  2.126817878145000E-010  2.344860758074800E-010  2.585257465052200E-010
2.850299707474200E-010  3.142514136987100E-010  3.464686434262000E-010  3.819887863932600E-010
4.211504551809000E-010  4.643269763436500E-010  5.119299491666900E-010  5.644131692453100E-010
6.222769542844400E-010  6.860729133496600E-010  7.564092050273500E-010  8.339563346110300E-010
9.194535455681800E-010  1.013715866205300E-009  1.117641878692900E-009  1.232222284496100E-009
1.358549347845900E-009  1.497827307254000E-009  1.651383854296500E-009  1.820682789066300E-009
2.007337972900600E-009  2.213128711355300E-009  2.440016714026000E-009  2.690164792834600E-009
2.965957476972600E-009  3.270023740944600E-009  3.605262062294700E-009  3.974868047788400E-009
4.382364891294500E-009  4.831636953585000E-009  5.326966784013400E-009  5.873075936812600E-009
6.475169970905200E-009  7.138988061959900E-009  7.870857699360301E-009  8.677754989180400E-009
9.567371137648401E-009  1.054818574844000E-008  1.162954763202500E-008  1.282176389681900E-008
1.413619817075000E-008  1.558537888878200E-008  1.718311867775200E-008  1.894464597553900E-008
2.088675013801600E-008  2.302794141565000E-008  2.538862732308800E-008  2.799130708111500E-008
3.086078598230700E-008  3.402441172131000E-008  3.751233493960000E-008  4.135779646497600E-008
4.559744397992200E-008  5.027168113288700E-008  5.542505241505100E-008  6.110666746521400E-008
6.737066884032799E-008  7.427674770233700E-008  8.189071232745601E-008  9.028511484598900E-008
9.953994217406500E-008  1.097433777085300E-007  1.209926410283400E-007  1.333949135866600E-007
1.470683591942900E-007  1.621432489949500E-007  1.787632016245800E-007  1.970865503399700E-007
2.172878501063400E-007  2.395595389610300E-007  2.641137694331400E-007  2.911844274113000E-007
3.210293576275600E-007  3.539328168834200E-007  3.902081783003500E-007  4.302009122542900E-007
4.742918722715900E-007  5.229009170497900E-007  5.764909029447000E-007  6.355720847679500E-007
7.007069665971900E-007  7.725156485515300E-007  8.516817201673200E-007  9.389587561668000E-007
1.035177476093700E-006  1.141253635547500E-006  1.258196723639800E-006  1.387119548888100E-006
1.529248804119100E-006  1.685936710162800E-006  1.858673848251500E-006  2.049103302201900E-006
2.259036243744900E-006  2.490469107898600E-006  2.745602520170900E-006  3.026862153774300E-006
3.336921713077600E-006  3.678728259379500E-006  4.055530116944300E-006  4.470907621285500E-006
4.928806998145400E-006  5.433577690725000E-006  5.990013484742500E-006  6.603397816113800E-006
7.279553684785800E-006  8.024898640840299E-006  8.846505355818700E-006  9.752168343691100E-006
1.075047745247800E-005  1.185089880971300E-005  1.306386397326000E-005  1.440086811405200E-005
1.587457813977000E-005  1.749895175900600E-005  1.928936858486200E-005  2.126277448604600E-005
2.343784051326500E-005  2.583513786009400E-005  2.847733046159300E-005  3.138938699197800E-005
3.459881419585400E-005  3.813591367737200E-005  4.203406447965600E-005  4.633003401459700E-005
5.106432015250000E-005  5.628152755392000E-005  6.203078162456700E-005  6.836618380051600E-005
7.534731222772200E-005  8.303977228946800E-005  9.151580186083901E-005  1.008549366335700E-004
1.111447413608600E-004  1.224816134235800E-004  1.349716657201900E-004  1.487316965367400E-004
1.638902547647700E-004  1.805888096075700E-004  1.989830347546500E-004  2.192442179143400E-004
2.415608075807100E-004  2.661401099785500E-004  2.932101502843700E-004  3.230217134675300E-004
3.558505814397900E-004  3.919999846484700E-004  4.318032878046100E-004  4.756269311068400E-004
5.238736501112300E-004  5.769859993093900E-004  6.354502065175700E-004  6.998003873509100E-004
7.706231513611700E-004  8.485626338553100E-004  9.343259899848700E-004  1.028689390399700E-003
1.132504560590000E-003  1.246705908990700E-003  1.372318291977800E-003  1.510465467040400E-003
1.662379288633300E-003  1.829409704494700E-003  2.013035613505800E-003  2.214876649446400E-003
2.436705958219300E-003  2.680464039214100E-003  2.948273724405700E-003  3.242456371458700E-003
3.565549349445400E-003  3.920324897702000E-003  4.309810439723300E-003  4.737310434721200E-003
5.206429849410000E-003  5.721099331601100E-003  6.285602165121000E-003  6.904603082279900E-003
7.583179005427800E-003  8.326851782905700E-003  9.141622976774001E-003  1.003401074996200E-002
1.101108888883300E-002  1.208052798357200E-002  1.325063877329000E-002  1.453041764543600E-002
1.592959426029200E-002  1.745868125132200E-002  1.912902593172400E-002  2.095286391740000E-002
2.294337455802200E-002  2.511473805243300E-002  2.748219411428600E-002  3.006210205113100E-002
3.287200212821100E-002  3.593067811077300E-002  3.925822092031400E-002  4.287609340612500E-002
4.680719632990300E-002  5.107593579504800E-002  5.570829253127800E-002  6.073189367779400E-002
6.617608800328800E-002  7.207202586774200E-002  7.845274567800101E-002  8.535326912466901E-002
9.281070811839300E-002  1.008643870731300E-001  1.095559850128600E-001  1.189297029014800E-001
1.290324626021700E-001  1.399141449411700E-001  1.516278754515200E-001  1.642303674593300E-001
1.777823331879800E-001  1.923489744153300E-001  2.080005648229200E-001  2.248131363987900E-001
2.428692819430100E-001  2.622590846942500E-001  2.830811841338400E-001  3.054439838908200E-001
3.294670031064400E-001  3.552823663532500E-001  3.830364190009900E-001  4.128914446103600E-001
4.450274485076200E-001  4.796439574259300E-001  5.169617697583800E-001  5.572245760800200E-001
6.007003578257900E-001  6.476824676068300E-001  6.984903039044700E-001  7.534695244544100E-001
8.129918073336400E-001  8.774542782082700E-001  9.472788851540600E-001  1.022912217007500E+000
1.104826499779100E+000  1.193522688381600E+000  1.289536520151000E+000  1.393447761549000E+000
1.505891012148200E+000  1.627563130748300E+000  0.000000000000000E+000  0.000000000000000E+000
0.000000000000000E+000  0.000000000000000E+000  0.000000000000000E+000  0.000000000000000E+000
0.000000000000000E+000  0.000000000000000E+000  0.000000000000000E+000  0.000000000000000E+000
0.000000000000000E+000  0.000000000000000E+000  0.000000000000000E+000  0.000000000000000E+000
0.000000000000000E+000  0.000000000000000E+000  0.000000000000000E+000  0.000000000000000E+000
0.000000000000000E+000  0.000000000000000E+000  0.000000000000000E+000  0.000000000000000E+000
0.000000000000000E+000  0.000000000000000E+000  0.000000000000000E+000  0.000000000000000E+000
0.000000000000000E+000  0.000000000000000E+000  0.000000000000000E+000  0.000000000000000E+000
0.000000000000000E+000  0.000000000000000E+000  0.000000000000000E+000  0.000000000000000E+000
0.000000000000000E+000  0.000000000000000E+000  0.000000000000000E+000  0.000000000000000E+000
0.000000000000000E+000  0.000000000000000E+000  0.000000000000000E+000  0.000000000000000E+000
0.000000000000000E+000  0.000000000000000E+000  0.000000000000000E+000  0.000000000000000E+000
0.000000000000000E+000  0.000000000000000E+000  0.000000000000000E+000  0.000000000000000E+000
0.000000000000000E+000  0.000000000000000E+000  0.000000000000000E+000  0.000000000000000E+000
0.000000000000000E+000  0.000000000000000E+000  0.000000000000000E+000  0.000000000000000E+000
0.000000000000000E+000  0.000000000000000E+000  0.000000000000000E+000  0.000000000000000E+000
0.000000000000000E+000  0.000000000000000E+000  0.000000000000000E+000  0.000000000000000E+000
0.000000000000000E+000  0.000000000000000E+000  0.000000000000000E+000  0.000000000000000E+000
0.000000000000000E+000  0.000000000000000E+000  0.000000000000000E+000  0.000000000000000E+000
0.000000000000000E+000  0.000000000000000E+000  0.000000000000000E+000  0.000000000000000E+000
0.000000000000000E+000  0.000000000000000E+000  0.000000000000000E+000  0.000000000000000E+000
0.000000000000000E+000  0.000000000000000E+000  0.000000000000000E+000  0.000000000000000E+000
0.000000000000000E+000  0.000000000000000E+000  0.000000000000000E+000  0.000000000000000E+000
0.000000000000000E+000  0.000000000000000E+000  0.000000000000000E+000  0.000000000000000E+000
0.000000000000000E+000  0.000000000000000E+000  0.000000000000000E+000  0.000000000000000E+000
0.000000000000000E+000  0.000000000000000E+000  0.000000000000000E+000  0.000000000000000E+000
0.000000000000000E+000  0.000000000000000E+000  0.000000000000000E+000  0.000000000000000E+000
0.000000000000000E+000  0.000000000000000E+000  0.000000000000000E+000  0.000000000000000E+000
0.000000000000000E+000  0.000000000000000E+000  0.000000000000000E+000  0.000000000000000E+000
0.000000000000000E+000  0.000000000000000E+000  0.000000000000000E+000  0.000000000000000E+000
0.000000000000000E+000  0.000000000000000E+000  0.000000000000000E+000  0.000000000000000E+000
0.000000000000000E+000  0.000000000000000E+000  0.000000000000000E+000  0.000000000000000E+000
0.000000000000000E+000  0.000000000000000E+000  0.000000000000000E+000  0.000000000000000E+000
0.000000000000000E+000  0.000000000000000E+000  0.000000000000000E+000  0.000000000000000E+000
0.000000000000000E+000  0.000000000000000E+000  0.000000000000000E+000
</PP_CHI.4>
</PP_PSWFC>
<PP_RHOATOM type="real" size="527" columns="4">
2.107584369844586E-009  2.212984853870322E-009  2.323656425589404E-009  2.439862692571811E-009
2.561880446837640E-009  2.690000320921310E-009  2.824527482339119E-009  2.965782360246476E-009
3.114101408473187E-009  3.269837906948005E-009  3.433362803174741E-009  3.605065595791425E-009
3.785355262314820E-009  3.974661233283382E-009  4.173434415116383E-009  4.382148264127003E-009
4.601299914246752E-009  4.831411361148022E-009  5.073030705585065E-009  5.326733458914110E-009
5.593123913904042E-009  5.872836584101620E-009  6.166537715178897E-009  6.474926871864801E-009
6.798738604239526E-009  7.138744197360275E-009  7.495753508388072E-009  7.870616895587878E-009
8.264227243801836E-009  8.677522091214420E-009  9.111485862480021E-009  9.567152213529845E-009
1.004560649364467E-008  1.054798833065537E-008  1.107549434543291E-008  1.162938100213103E-008
1.221096760096985E-008  1.282163942069453E-008  1.346285101818572E-008  1.413612969308887E-008
1.484307912571284E-008  1.558538319686049E-008  1.636480999869356E-008  1.718321604618503E-008
1.804255069918995E-008  1.894486080566562E-008  1.989229557710890E-008  2.088711170781776E-008
2.193167875016264E-008  2.302848475870581E-008  2.418014221656515E-008  2.538939425817848E-008
2.665912120325302E-008  2.799234741754064E-008  2.939224851666353E-008  3.086215893025888E-008
3.240557984441176E-008  3.402618754129111E-008  3.572784215587793E-008  3.751459687061594E-008
3.939070756994937E-008  4.136064297763914E-008  4.342909530113757E-008  4.560099140825516E-008
4.788150456285059E-008  5.027606674740798E-008  5.279038160194078E-008  5.543043800997460E-008
5.820252436403204E-008  6.111324354458989E-008  6.416952864813886E-008  6.737865950191193E-008
7.074828000454370E-008  7.428641633404352E-008  7.800149606640074E-008  8.190236825040184E-008
8.599832448648690E-008  9.029912105988785E-008  9.481500218076886E-008  9.955672438667394E-008
1.045355821656224E-007  1.097634348606299E-007  1.152527349200372E-007  1.210165575607855E-007
1.270686319154088E-007  1.334233737369093E-007  1.400959197395783E-007  1.471021636574425E-007
1.544587941063719E-007  1.621833343401830E-007  1.702941839952091E-007  1.788106629232633E-007
1.877530572170408E-007  1.971426675380571E-007  2.070018598621659E-007  2.173541187635418E-007
2.282241033645410E-007  2.396377060844106E-007  2.516221143273686E-007  2.642058752568733E-007
2.774189638108300E-007  2.912928541198010E-007  3.058605944988004E-007  3.211568861914421E-007
3.372181660546050E-007  3.540826933806544E-007  3.717906410648945E-007  3.903841913356293E-007
4.099076362756152E-007  4.304074833750072E-007  4.519325663680390E-007  4.745341616182822E-007
4.982661103308830E-007  5.231849468837927E-007  5.493500335853620E-007  5.768237021804367E-007
6.056714024440090E-007  6.359618582183409E-007  6.677672312673796E-007  7.011632933412865E-007
7.362296068643738E-007  7.730497146794671E-007  8.117113393052443E-007  8.523065921851899E-007
8.949321934318272E-007  9.396897025954888E-007  9.866857610139412E-007  1.036032346327695E-006
1.087847039776456E-006  1.142253306922701E-006  1.199380792483490E-006  1.259365629985560E-006
1.322350766996502E-006  1.388486306724500E-006  1.457929866820464E-006  1.530846956259937E-006
1.607411371229656E-006  1.687805610992062E-006  1.772221314753468E-006  1.860859720617426E-006
1.953932147762705E-006  2.051660503048233E-006  2.154277813314456E-006  2.262028784718123E-006
2.375170390517539E-006  2.493972488800951E-006  2.618718471739263E-006  2.749705948036471E-006
2.887247460344388E-006  3.031671239523880E-006  3.183321997733886E-006  3.342561762466613E-006
3.509770753771348E-006  3.685348307044492E-006  3.869713843935349E-006  4.063307894070974E-006
4.266593170481509E-006  4.480055701827777E-006  4.704206024716742E-006  4.939580439660948E-006
5.186742334469474E-006  5.446283579164428E-006  5.718825996819000E-006  6.005022915072740E-006
6.305560803447251E-006  6.621161002039323E-006  6.952581547617354E-006  7.300619103700590E-006
7.666111001771742E-006  8.049937401467318E-006  8.453023578290921E-006  8.876342348288120E-006
9.320916640005965E-006  9.787822225177036E-006  1.027819062072720E-005  1.079321217610385E-005
1.133413936143925E-005  1.190229027383405E-005  1.249905238102485E-005  1.312588652399592E-005
1.378433120264917E-005  1.447600717163280E-005  1.520262237678867E-005  1.596597726653336E-005
1.676797051693316E-005  1.761060521425888E-005  1.849599554465007E-005  1.942637404713912E-005
2.040409949398490E-005  2.143166547097195E-005  2.251170974052197E-005  2.364702448199545E-005
2.484056751697076E-005  2.609547464263601E-005  2.741507321415343E-005  2.880289713724015E-005
3.026270345568690E-005  3.179849074565700E-005  3.341451955976614E-005  3.511533519998333E-005
3.690579313984254E-005  3.879108746436483E-005  4.077678275128606E-005  4.286884988088317E-005
4.507370633519078E-005  4.739826163222074E-005  4.984996863864875E-005  5.243688161736196E-005
5.516772199662663E-005  5.805195299800474E-005  6.109986443376989E-005  6.432266918490459E-005
6.773261310188382E-005  7.134310033733229E-005  7.516883642738003E-005  7.922599179380121E-005
8.353238874882008E-005  8.810771555724824E-005  9.297377165597883E-005  9.815474875992325E-005
1.036775533088820E-004  1.095721765464253E-004  1.158721194862258E-004  1.226148811331202E-004
1.298425196075428E-004  1.376022972985058E-004  1.459474228714756E-004  1.549379049170173E-004
1.646415342825278E-004  1.751350147272865E-004  1.865052645314183E-004  1.988509151299498E-004
2.122840368013221E-004  2.269321259914361E-004  2.429403940867094E-004  2.604744034629628E-004
2.797231035442379E-004  3.009023275381974E-004  3.242588196174054E-004  3.500748727630468E-004
3.786736694627997E-004  4.104254311835106E-004  4.457544982654487E-004  4.851474798868013E-004
5.291626343473083E-004  5.784406634715805E-004  6.337171318457011E-004  6.958367523271924E-004
7.657698143243485E-004  8.446310713029131E-004  9.337014494882526E-004  1.034452991514563E-003
1.148577507631508E-003  1.278019473905178E-003  1.425013792635258E-003  1.592129116049087E-003
1.782317531415215E-003  1.998971515377286E-003  2.245989188950480E-003  2.527849043814292E-003
2.849695466934375E-003  3.217436565913108E-003  3.637855993696278E-003  4.118740690286982E-003
4.669026702946521E-003  5.298965517023688E-003  6.020313629030802E-003  6.846548423778207E-003
7.793113779969792E-003  8.877699225075945E-003  1.012055689149370E-002  1.154486099230460E-002
1.317711503588503E-002  1.504761253260574E-002  1.719095751083557E-002  1.964665174863083E-002
2.245975623462533E-002  2.568163498681637E-002  2.937078996756664E-002  3.359379641941531E-002
3.842634848626524E-002  4.395442544884886E-002  5.027558925566801E-002  5.750042422545973E-002
6.575412977942845E-002  7.517827676396831E-002  8.593273726712281E-002  9.819779671932298E-002
1.121764553889914E-001  1.280969240062116E-001  1.462153150230676E-001  1.668185267762508E-001
1.902273123663893E-001  2.167995181944148E-001  2.469334685711449E-001  2.810714623934460E-001
3.197033353047126E-001  3.633700257746961E-001  4.126670658947474E-001  4.682478971768394E-001
5.308268880987973E-001  6.011819034616985E-001  6.801562458466874E-001  7.686597567508604E-001
8.676688297346828E-001  9.782250507820285E-001  1.101432143047788E+000  1.238450855654789E+000
1.390491401097511E+000  1.558803015590014E+000  1.744660194480293E+000  1.949345144473519E+000
2.174126000436140E+000  2.420230382298127E+000  2.688813922996557E+000  2.980923487988755E+000
3.297454937325864E+000  3.639105459187442E+000  4.006320734980334E+000  4.399237485019866E+000
4.817622292437120E+000  5.260808009841288E+000  5.727629512157939E+000  6.216361057624665E+000
6.724658037373458E+000  7.249506403989379E+000  7.787183533257370E+000  8.333234643921184E+000
8.882469122218048E+000  9.428981109508191E+000  9.966198448446542E+000  1.048696348508027E+001
1.098364824103035E+001  1.144830507142716E+001  1.187285211027596E+001  1.224929061540759E+001
1.256994884827508E+001  1.282774450207245E+001  1.301645512053468E+001  1.313098367163860E+001
1.316760472706025E+001  1.312417582581354E+001  1.300029881611188E+001  1.279741745131594E+001
1.251884033488913E+001  1.216968239568308E+001  1.175672319877570E+001  1.128818617021042E+001
1.077344871564961E+001  1.022269864256403E+001  9.646556646970007E+000  9.055687372322101E+000
8.460422327232880E+000  7.870416626788209E+000  7.294358761311942E+000  6.739744882477837E+000
6.212729235401164E+000  5.718049710909082E+000  5.259025253758791E+000  4.837616212857192E+000
4.454535430050600E+000  4.109396154672640E+000  3.800882749975692E+000  3.526931382033050E+000
3.284910075013571E+000  3.071790246572865E+000  2.884304686540986E+000  2.719089556520671E+000
2.572810087472149E+000  2.442271009696362E+000  2.324513151799779E+000  2.216896872593270E+000
2.117170871122899E+000  2.023521646358436E+000  1.934593874091396E+000  1.849471236850723E+000
1.767615281451261E+000  1.688696643649524E+000  1.612457945662505E+000  1.538675235437342E+000
1.467149795719855E+000  1.397708455440702E+000  1.330203847001979E+000  1.264513760839511E+000
1.200540243842325E+000  1.138208367694701E+000  1.077464716199008E+000  1.018275632281785E+000
9.606252659245084E-001  9.045134650017461E-001  8.499535510808733E-001  7.969700218144884E-001
7.455962206410710E-001  6.958720131248147E-001  6.478415074355315E-001  6.015508542169782E-001
5.570461584423151E-001  5.143715325244076E-001  4.735673186667133E-001  4.346684990435106E-001
3.977033167630977E-001  3.626921196538045E-001  3.296464374350012E-001  2.985682978325841E-001
2.694497826471086E-001  2.422728202478943E-001  2.170092065311407E-001  1.936208421355366E-001
1.720601697509596E-001  1.522707917820068E-001  1.341882455325824E-001  1.177409105495830E-001
1.028510208783454E-001  8.943575380084534E-002  7.740836618933679E-002  6.667934992831132E-002
5.715757892634513E-002  4.875142201744134E-002  4.136979847359392E-002  3.492315582582602E-002
2.932435310660709E-002  2.448943635433403E-002  2.033829711950301E-002  1.679520863912064E-002
1.378923815997568E-002  1.125453746179060E-002  9.130516843558652E-003  7.361910597173366E-003
5.898744233614628E-003  4.696215407400990E-003  3.714501591461111E-003  2.918508100117821E-003
2.277570079541520E-003  1.765121639707684E-003  1.358344461726785E-003  1.037807061460891E-003
7.871045113123272E-004  5.925069032057772E-004  4.426232584581501E-004  3.280860271972957E-004
2.412598328117908E-004  1.759767541986246E-004  1.272992354061608E-004  9.131069040321095E-005
6.493303960747153E-005  4.576977322549979E-005  3.197267438053221E-005  2.213003580155661E-005
1.517404641236044E-005  1.030498492769815E-005  6.929912276375374E-006  4.613679830571598E-006
3.040244396663821E-006  1.982484709769099E-006  1.278931821358296E-006  8.160445487139570E-007
5.148713879998015E-007  3.211354589110673E-007  1.979544235658350E-007  1.205615959591686E-007
7.252629065417610E-008  4.308210808237342E-008  2.526283548276003E-008  1.461893962477277E-008
8.344551039545284E-009  4.698108872792668E-009  2.607729252327095E-009  1.426497127113624E-009
7.687654811771001E-010  4.080119254384006E-010  2.131793053169313E-010  1.096082586560685E-010
5.543650837903638E-011  2.756936011100705E-011  1.347576862240124E-011  6.471282432527692E-012
3.051753705310584E-012  1.412662226221477E-012  6.415896988789040E-013  2.857599469912819E-013
1.247555239281084E-013  5.336012710327214E-014  2.234864884478132E-014  9.160856810952451E-015
3.673149358289774E-015  1.439859284140137E-015  5.514874718114183E-016  2.062691342864554E-016
7.529362415145943E-017  2.680669071381945E-017  9.302893697874445E-018  3.144882989668361E-018
1.034944200523388E-018  3.313311820627574E-019  1.031192619805638E-019  3.117745058133404E-020
9.150560708840678E-021  2.605167373192397E-021  7.189027647419077E-022  1.921356806276524E-022
4.969317617745825E-023  1.242721338739423E-023  3.002390999986516E-024  7.001424690610895E-025
1.574489151270132E-025  3.410113752665730E-026  7.104458800338438E-027  0.000000000000000E+000
0.000000000000000E+000  0.000000000000000E+000  0.000000000000000E+000  0.000000000000000E+000
0.000000000000000E+000  0.000000000000000E+000  0.000000000000000E+000  0.000000000000000E+000
0.000000000000000E+000  0.000000000000000E+000  0.000000000000000E+000  0.000000000000000E+000
0.000000000000000E+000  0.000000000000000E+000  0.000000000000000E+000  0.000000000000000E+000
0.000000000000000E+000  0.000000000000000E+000  0.000000000000000E+000
</PP_RHOATOM>
</UPF>
