 &control
   calculation='scf',
   outdir = '/global/cscratch1/sd/cpolanco/Si/', 
   prefix='Si', 
   pseudo_dir = '/global/homes/c/cpolanco/Materials/pseudo/',
   restart_mode='from_scratch',
   tprnfor= .true.,
   tstress= .true.,
 /
 &system
   ibrav= 2, 
   celldm(1)= 10.20777693, 
   nat= 2, 
   ntyp= 1,
   ecutwfc= 100.0
 /
 &electrons
   mixing_beta= 0.7
   conv_thr= 1.0d-14
 /

ATOMIC_SPECIES
 Si  28.086  Si.pz-vbc.UPF

ATOMIC_POSITIONS (alat)
 Si 0.00 0.00 0.00
 Si 0.25 0.25 0.25

K_POINTS (automatic)
  8 8 8 0 0 0
