&CONTROL
    calculation = 'scf'
    title = ''
    verbosity = 'low'
    restart_mode = 'from_scratch'
    wf_collect = .true.
    tstress = .true.
    tprnfor = .true.
    outdir = {% raw %}'{{ JOB_WORK_DIR }}/outdir'{% endraw %}
    wfcdir = {% raw %}'{{ JOB_WORK_DIR }}/outdir'{% endraw %}
    prefix = '__prefix__'
    pseudo_dir = {% raw %}'{{ JOB_WORK_DIR }}/pseudo'{% endraw %}
/
&SYSTEM
    ibrav = 0
    nat = 30
    ntyp = 3
    ecutwfc = 40
    ecutrho = 200
    occupations = 'smearing'
    degauss = 0.005
/
&ELECTRONS
    diagonalization = 'david'
    diago_david_ndim = 4
    diago_full_acc = .true.
    mixing_beta = 0.3
    startingwfc = 'atomic+random'
/
&IONS
/
&CELL
/
ATOMIC_SPECIES
Li 6.941 li_pbe_gbrv_1.4.upf
Co 58.9332 co_pbe_gbrv_1.2.upf
O 15.9994 o_pbe_gbrv_1.2.upf
ATOMIC_POSITIONS crystal
Li  0.000000000 0.311086740 0.267796610 
Li  0.688913260 0.000000000 0.767796610 
Li  0.311086740 0.311086740 0.767796610 
Li  0.688913260 0.688913260 0.267796610 
Li  0.311086740 0.000000000 0.267796610 
Li  0.000000000 0.688913260 0.767796610 
Li  0.000000000 0.389254000 0.627839820 
Li  0.610746000 0.000000000 0.127839820 
Li  0.389254000 0.389254000 0.127839820 
Li  0.610746000 0.610746000 0.627839820 
Li  0.389254000 0.000000000 0.627839820 
Li  0.000000000 0.610746000 0.127839820 
Li  0.333333333 0.666666667 0.905696710 
Li  0.666666667 0.333333333 0.405696710 
Li  0.666666667 0.333333333 0.905696710 
Li  0.333333333 0.666666667 0.405696710 
Co  0.000000000 0.000000000 0.995734260 
Co  0.000000000 0.000000000 0.495734260 
O   0.000000000 0.313101700 0.449010680 
O   0.686898300 0.000000000 0.949010680 
O   0.313101700 0.313101700 0.949010680 
O   0.686898300 0.686898300 0.449010680 
O   0.313101700 0.000000000 0.449010680 
O   0.000000000 0.686898300 0.949010680 
O   0.333333333 0.666666667 0.716559190 
O   0.000000000 0.000000000 0.667848150 
O   0.333333333 0.666666667 0.216559190 
O   0.666666667 0.333333333 0.716559190 
O   0.000000000 0.000000000 0.167848150 
O   0.666666667 0.333333333 0.216559190 
CELL_PARAMETERS angstrom
5.456930000 0.000000000 0.000000000
-2.728465000 4.725840007 0.000000000
0.000000000 0.000000000 10.674150000
K_POINTS automatic
2 2 1 0 0 0 