System = Cu

ISTART = 0
ICHARG = 2

NSW    = 0
EDIFF  = 1E-05
ALGO   = Fast
LREAL  = Auto
ENCUT  = 295 ! VASP Manual's recommended cutoff for PAW/PBE/Cu pseudopotential, ideally you'd go converge this too.
PREC   = Med

ISMEAR = 0 ! Since we're just using a single gamma, we're going with Gaussian smearing
SIGMA  = 0.05
