INCAR created by Atomic Simulation Environment
 ENCUT = 520.000000
 SIGMA = 0.050000
 EDIFF = 1.00e-06
 ALGO = Fast
 PREC = Accurate
 IBRION = 2
 ISIF = 3
 ISMEAR = -5
 ISPIN = 2
 ISTART = 0
 LORBIT = 11
 NELM = 100
 NSW = 200
 MAGMOM = 2*0.6000
 LASPH = .TRUE.
 LWAVE = .FALSE.
 LREAL = .FALSE.
