Si 
 1.0000000000000000
    -2.7343639999999998   -2.7343639999999998    0.0000000000000000
    -2.7343639999999998    0.0000000000000000   -2.7343639999999998
     0.0000000000000000   -2.7343639999999998   -2.7343639999999998
 Si 
   2
Cartesian
 -1.3671819999999999 -1.3671819999999999 -1.3671819999999999
 -2.7343639999999998 -2.7343639999999998 -2.7343639999999998
