&CONTROL
    calculation = 'scf'
    title = ''
    verbosity = 'low'
    restart_mode = 'from_scratch'
    wf_collect = .true.
    tstress = .true.
    tprnfor = .true.
    outdir = {% raw %}'{{ JOB_WORK_DIR }}/outdir'{% endraw %}
    wfcdir = {% raw %}'{{ JOB_WORK_DIR }}/outdir'{% endraw %}
    prefix = '__prefix__'
    pseudo_dir = {% raw %}'{{ JOB_WORK_DIR }}/pseudo'{% endraw %}
/
&SYSTEM
    ibrav = 0
    nat = 8
    ntyp = 2
    ecutwfc = 40
    ecutrho = 200
    occupations = 'smearing'
    degauss = 0.005
/
&ELECTRONS
    diagonalization = 'david'
    diago_david_ndim = 4
    diago_full_acc = .true.
    mixing_beta = 0.3
    startingwfc = 'atomic+random'
/
&IONS
/
&CELL
/
ATOMIC_SPECIES
Li 6.941 li_pbe_gbrv_1.4.upf
Fe 55.847 fe_pbe_gbrv_1.5.upf
ATOMIC_POSITIONS crystal
Li  0.345818000 0.172909000 0.750000000 
Li  0.827091000 0.172909000 0.750000000 
Li  0.827091000 0.654182000 0.750000000 
Li  0.654182000 0.827091000 0.250000000 
Li  0.172909000 0.827091000 0.250000000 
Li  0.172909000 0.345818000 0.250000000 
Fe  0.666666667 0.333333333 0.250000000 
Fe  0.333333333 0.666666667 0.750000000 
CELL_PARAMETERS angstrom
5.574374000 0.000000000 0.000000000
-2.787187000 4.827549494 0.000000000
0.000000000 0.000000000 4.559902000
K_POINTS automatic
2 2 2 0 0 0 