INCAR created by Atomic Simulation Environment
 ENCUT = 400.000000
 POTIM = 0.150000
 SIGMA = 0.020000
 EDIFF = 1.00e-06
 EDIFFG = -1.00e-02
 ALGO = Very_Fast
 GGA = PE
 PREC = Accurate
 IBRION = -1
 ISIF = 3
 ISMEAR = 0
 ISYM = 2
 NELM = 500
 NELMDL = -9
 NELMIN = 6
 NPAR = 4
 NSW = 0
 LCHARG = .FALSE.
 LPLANE = .TRUE.
 LWAVE = .FALSE.
 LREAL = Auto
