KPOINTS created by Atomic Simulation Environment
0
Monkhorst-Pack
2 2 2 
0 0 0
