KPOINTS created by Atomic Simulation Environment
0
Gamma
6 6 4 
0 0 0
