Na 
 1.0000000000000000
     3.7594180000000001    0.0000000000000000    0.0000000000000000
    -1.8797090000000001    3.2557510000000001    0.0000000000000000
     0.0000000000000000    0.0000000000000000    6.0649769999999998
 Na 
   2
Cartesian
  1.8797108797089999  1.0852492480830001  4.5487327500000001
 -0.0000018797090001  2.1705017519170000  1.5162442500000000
