SYSTEM =  Si
ISMEAR = 0
SIGMA  = 0.05
LWAVE  = .FALSE.
LCHARG = .FALSE.
