Ga As 
 1.0000000000000000
     5.7501819999999997    0.0000000000000000    0.0000000000000000
     0.0000000000000000    5.7501819999999997    0.0000000000000000
     0.0000000000000000    0.0000000000000000    5.7501819999999997
 Ga  As 
   4   4
Cartesian
  0.0000000000000000  0.0000000000000000  0.0000000000000000
  0.0000000000000000  2.8750909999999998  2.8750909999999998
  2.8750909999999998  0.0000000000000000  2.8750909999999998
  2.8750909999999998  2.8750909999999998  0.0000000000000000
  1.4375454999999999  1.4375454999999999  1.4375454999999999
  1.4375454999999999  4.3126365000000000  4.3126365000000000
  4.3126365000000000  1.4375454999999999  4.3126365000000000
  4.3126365000000000  4.3126365000000000  1.4375454999999999
