0.0_-0.3333333333333333
1.0
8.8359 0.0 0.0
0.0 15.3042277305 0.0
0.0 -1.7004697478333333 14.06223
Type_1 
108 
Cartesian
0.0 3.4009564999 2.3437050005
0.0 0.0 0.0
1.4726500003 2.5507046223 0.0
1.4726500003 0.8502518791 2.3437050005
0.0 3.4009564999 7.031115
0.0 0.0 4.6874099995
1.4726500003 2.5507046223 4.6874099995
1.4726500003 0.8502518791 7.031115
0.0 3.4009564999 11.7185249995
0.0 0.0 9.3748200005
1.4726500003 2.5507046223 9.3748200005
1.4726500003 0.8502518791 11.7185249995
0.0 8.5023657444 2.3437050005
0.0 5.101409243 0.0
1.4726500003 7.6521138652 0.0
1.4726500003 5.9516611221 2.3437050005
0.0 8.5023657444 7.031115
0.0 5.101409243 4.6874099995
1.4726500003 7.6521138652 4.6874099995
1.4726500003 5.9516611221 7.031115
0.0 8.5023657444 11.7185249995
0.0 5.101409243 9.3748200005
1.4726500003 7.6521138652 9.3748200005
1.4726500003 5.9516611221 11.7185249995
0.0 13.6037749874 2.3437050005
0.0 10.2028184875 0.0
1.4726500003 12.7535231082 0.0
1.4726500003 11.0530703651 2.3437050005
0.0 13.6037749874 7.031115
0.0 10.2028184875 4.6874099995
1.4726500003 12.7535231082 4.6874099995
1.4726500003 11.0530703651 7.031115
0.0 13.6037749874 11.7185249995
0.0 10.2028184875 9.3748200005
1.4726500003 12.7535231082 9.3748200005
1.4726500003 11.0530703651 11.7185249995
2.9452999997 3.4009564999 2.3437050005
2.9452999997 0.0 0.0
4.41795 2.5507046223 0.0
4.41795 0.8502518791 2.3437050005
2.9452999997 3.4009564999 7.031115
2.9452999997 0.0 4.6874099995
4.41795 2.5507046223 4.6874099995
4.41795 0.8502518791 7.031115
2.9452999997 3.4009564999 11.7185249995
2.9452999997 0.0 9.3748200005
4.41795 2.5507046223 9.3748200005
4.41795 0.8502518791 11.7185249995
2.9452999997 8.5023657444 2.3437050005
2.9452999997 5.101409243 0.0
4.41795 7.6521138652 0.0
4.41795 5.9516611221 2.3437050005
2.9452999997 8.5023657444 7.031115
2.9452999997 5.101409243 4.6874099995
4.41795 7.6521138652 4.6874099995
4.41795 5.9516611221 7.031115
2.9452999997 8.5023657444 11.7185249995
2.9452999997 5.101409243 9.3748200005
4.41795 7.6521138652 9.3748200005
4.41795 5.9516611221 11.7185249995
2.9452999997 13.6037749874 2.3437050005
2.9452999997 10.2028184875 0.0
4.41795 12.7535231082 0.0
4.41795 11.0530703651 2.3437050005
2.9452999997 13.6037749874 7.031115
2.9452999997 10.2028184875 4.6874099995
4.41795 12.7535231082 4.6874099995
4.41795 11.0530703651 7.031115
2.9452999997 13.6037749874 11.7185249995
2.9452999997 10.2028184875 9.3748200005
4.41795 12.7535231082 9.3748200005
4.41795 11.0530703651 11.7185249995
5.8906000003 3.4009564999 2.3437050005
5.8906000003 0.0 0.0
7.3632499997 2.5507046223 0.0
7.3632499997 0.8502518791 2.3437050005
5.8906000003 3.4009564999 7.031115
5.8906000003 0.0 4.6874099995
7.3632499997 2.5507046223 4.6874099995
7.3632499997 0.8502518791 7.031115
5.8906000003 3.4009564999 11.7185249995
5.8906000003 0.0 9.3748200005
7.3632499997 2.5507046223 9.3748200005
7.3632499997 0.8502518791 11.7185249995
5.8906000003 8.5023657444 2.3437050005
5.8906000003 5.101409243 0.0
7.3632499997 7.6521138652 0.0
7.3632499997 5.9516611221 2.3437050005
5.8906000003 8.5023657444 7.031115
5.8906000003 5.101409243 4.6874099995
7.3632499997 7.6521138652 4.6874099995
7.3632499997 5.9516611221 7.031115
5.8906000003 8.5023657444 11.7185249995
5.8906000003 5.101409243 9.3748200005
7.3632499997 7.6521138652 9.3748200005
7.3632499997 5.9516611221 11.7185249995
5.8906000003 13.6037749874 2.3437050005
5.8906000003 10.2028184875 0.0
7.3632499997 12.7535231082 0.0
7.3632499997 11.0530703651 2.3437050005
5.8906000003 13.6037749874 7.031115
5.8906000003 10.2028184875 4.6874099995
7.3632499997 12.7535231082 4.6874099995
7.3632499997 11.0530703651 7.031115
5.8906000003 13.6037749874 11.7185249995
5.8906000003 10.2028184875 9.3748200005
7.3632499997 12.7535231082 9.3748200005
7.3632499997 11.0530703651 11.7185249995
