Silicon FCC                             
   1.00000000000000     
     3.8670000000000000    0.0000000000000000    0.0000000000000000
     1.9335000000000000    3.3489202360000001    0.0000000000000000
     1.9335000000000000    1.1163067449999999    3.1573922780000001
   Si
     2
Direct
  0.0000000000000000  0.0000000000000000  0.0000000000000000
  0.2500000000000000  0.2500000000000000  0.2500000000000000
 
  0.00000000E+00  0.00000000E+00  0.00000000E+00
  0.00000000E+00  0.00000000E+00  0.00000000E+00
