&CONTROL
    calculation = 'scf'
    title = ''
    verbosity = 'low'
    restart_mode = 'from_scratch'
    wf_collect = .true.
    tstress = .true.
    tprnfor = .true.
    outdir = {% raw %}'{{ JOB_WORK_DIR }}/outdir'{% endraw %}
    wfcdir = {% raw %}'{{ JOB_WORK_DIR }}/outdir'{% endraw %}
    prefix = '__prefix__'
    pseudo_dir = {% raw %}'{{ JOB_WORK_DIR }}/pseudo'{% endraw %}
/
&SYSTEM
    ibrav = 0
    nat = 16
    ntyp = 4
    ecutwfc = 40
    ecutrho = 200
    occupations = 'smearing'
    degauss = 0.005
/
&ELECTRONS
    diagonalization = 'david'
    diago_david_ndim = 4
    diago_full_acc = .true.
    mixing_beta = 0.3
    startingwfc = 'atomic+random'
/
&IONS
/
&CELL
/
ATOMIC_SPECIES
Zn 65.39 zn_pbe_gbrv_1.0.upf
Cu 63.546 cu_pbe_gbrv_1.2.upf
Sn 118.71 sn_pbe_gbrv_1.4.upf
Se 78.96 se_pbe_gbrv_1.0.upf
ATOMIC_POSITIONS crystal
Zn 0.0000000000000000    0.5000000000000000    0.2500000000000000 
Zn 0.5000000000000000    0.0000000000000000    0.7500000000000000 
Cu 0.5000000000000000    0.0000000000000000    0.2500000000000000 
Cu 0.0000000000000000    0.0000000000000000    0.0000000000000000 
Cu 0.0000000000000000    0.5000000000000000    0.7500000000000000 
Cu 0.5000000000000000    0.5000000000000000    0.5000000000000000 
Sn 0.5000000000000000    0.5000000000000000    0.0000000000000000 
Sn 0.0000000000000000    0.0000000000000000    0.5000000000000000 
Se 0.2665135000000000    0.2597335000000001    0.3700205000000000 
Se 0.7334865000000000    0.7402664999999999    0.3700205000000000 
Se 0.2402664999999999    0.7665135000000000    0.1299795000000000 
Se 0.7597335000000001    0.2334865000000000    0.1299795000000000 
Se 0.7665135000000000    0.7597335000000001    0.8700205000000001 
Se 0.2334865000000002    0.2402664999999999    0.8700205000000001 
Se 0.7402664999999999    0.2665134999999998    0.6299794999999999 
Se 0.2597335000000001    0.7334865000000000    0.6299794999999999 
CELL_PARAMETERS angstrom
   5.7712740000000000    0.0000000000000000    0.0000000000000004
   0.0000000000000009    5.7712740000000000    0.0000000000000004
   0.0000000000000000    0.0000000000000000   11.4796619999999994
K_POINTS automatic
2 2 1 0 0 0 