KPOINTS created by Atomic Simulation Environment
0
Gamma
13 13 13 
0 0 0
