&control
calculation='scf'
outdir='.'
prefix='diamond_relax'
pseudo_dir='.'
tprnfor=.true.,
tstress=.true.
/
&system
ibrav=2,
celldm(1)=11.000000,
nat=2,
ntyp=1,
ecutwfc=11.024792647423613,
/
&electrons
conv_thr=1.0E-6,
mixing_beta=0.4
/
ATOMIC_SPECIES
Si 28.085000 Si.pbe-rrkj.UPF.txt
ATOMIC_POSITIONS crystal
Si 0.000000 0.000000 0.000000
Si 0.250000 0.250000 0.250000
K_POINTS automatic
2 2 2 0 0 0